LAMMPS (3 Mar 2020)
  using 8 OpenMP thread(s) per MPI task
## binning x:60-160, y:0.0-34.4, z:2.8-29.0
## binning x:60-90 x:120-150

############################################################
#####	 	    Argon sandwich	   	   #########
############################################################
variable		T equal 1.0
variable 		V equal vol
variable 		dt equal 0.002

units			lj
atom_style		bond
special_bonds 		fene

dimension 		3
boundary		f p f

read_data         	tank_atomdata
  orthogonal box = (0 0 0) to (39 34.5 48)
  2 by 1 by 2 MPI processor grid
  reading atoms ...
  40455 atoms
  scanning bonds ...
  1 = max bonds/atom
  reading bonds ...
  26040 bonds
  2 = max # of 1-2 neighbors
  2 = max # of special neighbors
  special bonds CPU = 0.00418496 secs
  read_data CPU = 0.0904908 secs
#read_restart 		water.restart.mpiio

############################################################
#############INTERACTION PARAMETERS#########################
group                   bread     type 2
10695 atoms in group bread
group                   ham       type 1
29760 atoms in group ham

mass                    2       1.0  ## atomic mass of platinum
mass                    1       1.0  ## atomic mass of platinum

neighbor        	0.3 bin
neigh_modify		every 1 delay 10 check yes
################### L-J potential #####################
pair_style              lj/cut  2.5

pair_coeff              1 1  1.0 1.0 2.5
pair_coeff              1 2  0.8 1.0 2.5
pair_coeff              2 2  1.0 1.0 2.5
#################### FENE bond #########################
bond_style 		fene
bond_coeff 		1 10.2478 1.4 1.0 1.0
#################### Harmonic potential ##################
fix 			wall bread spring/self 10000.0

thermo 			10
min_style 		fire
min_modify 		dmax 0.01
minimize 		1.0e-5 1.0e-7 500 10000
WARNING: Using 'neigh_modify every 1 delay 0 check yes' setting during minimization (../min.cpp:190)
Neighbor list info ...
  update every 1 steps, delay 0 steps, check yes
  max neighbors/atom: 2000, page size: 100000
  master list distance cutoff = 2.8
  ghost atom cutoff = 2.8
  binsize = 1.4, bins = 28 25 35
  1 neighbor lists, perpetual/occasional/extra = 1 0 0
  (1) pair lj/cut, perpetual
      attributes: half, newton on
      pair build: half/bin/newton
      stencil: half/bin/3d/newton
      bin: standard
  Parameters for fire: 
    dmax delaystep dtgrow dtshrink alpha0 alphashrink tmax tmin    integrator halfstepback 
    0.01        20    1.1      0.5   0.25        0.99   10 0.02 eulerimplicit          yes 
Per MPI rank memory allocation (min/avg/max) = 12.15 | 16.29 | 20.59 Mbytes
Step Temp E_pair E_mol TotEng Press 
       0            0   -4.0144327    5.6773841    1.6629514   -2.8218986 
      10  0.033057733   -4.1994622    5.6099654    1.4600886   -3.1238144 
      20   0.09628247   -4.2103859    5.4760856    1.4101198   -2.5112887 
      30   0.17234014   -4.2228161    5.3254617    1.3611494   -1.7416898 
      40 0.00063601342   -4.2401735    5.2897219    1.0505024   -1.5876981 
      50 0.0038936033   -4.2419405     5.284743    1.0486428   -1.5415306 
      60  0.011029046   -4.2469172    5.2755633    1.0451893   -1.4431959 
      70  0.027466334   -4.2865987    5.2549619    1.0095617   -1.1047924 
      80  0.000382072   -4.2708481    5.2550526   0.98477759   -1.0822764 
      90 0.0017671793   -4.2732749    5.2543561   0.98373193   -1.0506301 
     100  0.005001657   -4.2829176    5.2532565   0.97784114  -0.97903694 
     110 0.00079889218   -4.3045914    5.2558513   0.95245821  -0.71954441 
     120 0.00024089777   -4.3087099    5.2561129   0.94776433  -0.71925144 
     130 0.00075421568   -4.3096566    5.2567325   0.94820722  -0.69729369 
     140 0.0021954899   -4.3129832    5.2584969   0.94880686  -0.64665217 
     150 1.2395846e-05   -4.3219739    5.2618822   0.93992683  -0.57704676 
     160 0.00017428615   -4.3222091    5.2621035   0.94015574  -0.57155781 
     170 0.00055593656   -4.3236391    5.2625839   0.93977866  -0.56285571 
     180 0.0018918398   -4.3280665     5.264126   0.93889718  -0.53721525 
     190 0.00012062252   -4.3343702    5.2659859   0.93179659  -0.51243404 
     200 3.3566468e-05   -4.3346283    5.2660103   0.93143235  -0.51259833 
     210 0.00012789362   -4.3347168     5.266064   0.93153904  -0.51148787 
     220 0.00038436583   -4.3354833    5.2662012   0.93129443  -0.51008081 
     230 0.0017225396    -4.339148    5.2668358   0.93027154  -0.50368467 
     240 0.00010119667   -4.3438772    5.2674348   0.92370937  -0.50283312 
     250 3.9245026e-05   -4.3425173    5.2674452   0.92498677   -0.4987718 
     260 0.00013665248     -4.34294    5.2674757   0.92474069  -0.49904442 
     270 0.00042247037   -4.3436345    5.2675614   0.92456054  -0.49829322 
     280 0.0019289055   -4.3472784    5.2679901   0.92360497  -0.49532525 
     290 1.2259062e-06   -4.3486696    5.2683011   0.91963336   -0.4913816 
     300 4.4921102e-05   -4.3500193    5.2683131   0.91836121  -0.49472835 
     310 0.00014369518   -4.3500745    5.2683414   0.91848238   -0.4939947 
     320 0.00046138988   -4.3507962    5.2684286   0.91832455  -0.49328847 
     330 0.0021822045   -4.3546503    5.2688789   0.91750176  -0.49031174 
     340 6.3612995e-05   -4.3559881    5.2690919   0.91319921  -0.48955521 
     350 0.0002983807    -4.357691    5.2691586   0.91191516   -0.4923044 
     360 0.00089546935   -4.3589448    5.2692956   0.91169399  -0.49175547 
     370 1.8277598e-06   -4.3625682    5.2695675   0.90700206  -0.49514113 
     380 0.00010467299   -4.3624652    5.2695853    0.9072771  -0.49428792 
     390 0.00036790294   -4.3629867    5.2696264   0.90719149   -0.4944025 
     400 0.0012534961   -4.3650731    5.2697397   0.90654679  -0.49611166 
     410 5.3101019e-05   -4.3734461    5.2698981   0.89653174  -0.51364122 
     420 3.4661244e-05   -4.3705975    5.2698989   0.89935338   -0.5055412 
     430 0.00013709854   -4.3707462    5.2698997   0.89935909  -0.50568902 
     440 0.00038830391   -4.3713414     5.269899   0.89914009  -0.50682547 
     450 0.0016575542   -4.3739523    5.2698573   0.89839129  -0.51226447 
     460 4.5308851e-05   -4.3798482    5.2695711   0.88979094  -0.53101129 
     470 0.00042334902   -4.3806628    5.2695155   0.88948777  -0.53347786 
     480 0.0013466622   -4.3823293    5.2693708   0.88906144  -0.53899627 
     490 0.0049577428   -4.3931182    5.2685541   0.88287227  -0.57756656 
     500 0.00015083234   -4.3905984    5.2683814   0.87800916  -0.57589628 
Loop time of 5.82399 on 32 procs for 500 steps with 40455 atoms

92.8% CPU use with 4 MPI tasks x 8 OpenMP threads

Minimization stats:
  Stopping criterion = max iterations
  Energy initial, next-to-last, final = 
         1.66295135792      0.87798565942     0.877782913163
  Force two-norm initial, final = 15728.6 238.926
  Force max component initial, final = 591.327 11.196
  Final line search alpha, max atom move = 0 0
  Iterations, force evaluations = 500 530

MPI task timing breakdown:
Section |  min time  |  avg time  |  max time  |%varavg| %total
---------------------------------------------------------------
Pair    | 1.8115     | 3.021      | 4.2967     |  63.0 | 51.87
Bond    | 0.11204    | 0.17209    | 0.23582    |  13.0 |  2.95
Neigh   | 0.054082   | 0.056834   | 0.059597   |   1.2 |  0.98
Comm    | 0.55737    | 2.0202     | 3.4074     |  83.6 | 34.69
Output  | 0.027082   | 0.027951   | 0.028815   |   0.5 |  0.48
Modify  | 0.012501   | 0.018253   | 0.024602   |   4.1 |  0.31
Other   |            | 0.5077     |            |       |  8.72

Nlocal:    10113.8 ave 13681 max 6881 min
Histogram: 1 1 0 0 0 0 0 1 0 1
Nghost:    5161.25 ave 6160 max 4331 min
Histogram: 2 0 0 0 0 0 0 1 0 1
Neighs:    357896 ave 514465 max 219624 min
Histogram: 1 1 0 0 0 0 0 1 0 1

Total # of neighbors = 1431586
Ave neighs/atom = 35.3871
Ave special neighs/atom = 1.28736
Neighbor list builds = 4
Dangerous builds = 0

############################################################
#############EQUILIBRATION PARAMETERS######################
velocity 		all create ${T} 12345
velocity 		all create 1 12345
compute 		myTemp all temp
fix			1 all nvt temp ${T} ${T} 100.0
fix			1 all nvt temp 1 ${T} 100.0
fix			1 all nvt temp 1 1 100.0
fix 			2 all langevin 1 1 10 100000
fix 			30 all wall/reflect zhi EDGE
fix 			300 all wall/reflect zlo EDGE
fix 			40 all wall/reflect xhi EDGE
fix 			400 all wall/reflect xlo EDGE
timestep 		${dt}
timestep 		0.002
thermo 			100

dump 			1 all custom 200 equ_tank.dat id type x y z
run 			50000
Per MPI rank memory allocation (min/avg/max) = 12.16 | 16.31 | 20.6 Mbytes
Step Temp E_pair E_mol TotEng Press 
     500            1   -4.3905984    5.2683814    2.3777458  0.050387289 
     600   0.57483988   -4.2546741    5.4516611    2.0592255  -0.53953876 
     700   0.80135571   -4.3958884    5.4701816     2.276297  -0.03378462 
     800    0.7866516    -4.387627    5.4801097    2.2724309   0.13349278 
     900    0.7097408   -4.4056673      5.50553    2.1644475 -0.019281582 
    1000   0.83834269   -4.4015696    5.5116818    2.3675951  0.049354755 
    1100    0.7208051   -4.4103152    5.5145269    2.1853927 -0.093707146 
    1200   0.81281519   -4.4141799    5.5196302    2.3246429 -0.053681755 
    1300   0.78564823   -4.4180208    5.5218788    2.2823012 -0.087663601 
    1400   0.78422772   -4.4252667    5.5278132     2.278859 -0.070412381 
    1500   0.80749614   -4.4198731    5.5307759    2.3221171 -0.077253065 
    1600   0.80233468   -4.4209296    5.5329395    2.3154822 -0.061033904 
    1700   0.79525695   -4.4191461    5.5312343    2.3049441 -0.020134938 
    1800   0.82264859   -4.4164946    5.5314946    2.3489423 -0.0024062758 
    1900   0.81377691   -4.4192918    5.5339057     2.335249 -0.0094008211 
    2000   0.80556938   -4.4237361    5.5335136    2.3181017 -0.0062488536 
    2100   0.85529571   -4.4212906    5.5367293    2.3983506 0.0085925414 
    2200   0.80152398   -4.4246788      5.53338    2.3109574 -0.028887682 
    2300   0.85522175   -4.4278442    5.5372492    2.3922059  0.015530438 
    2400   0.83632141   -4.4213113    5.5381819    2.3713217  0.058160041 
    2500   0.83535097   -4.4331834    5.5380134    2.3578256  0.027939472 
    2600   0.87084804    -4.433573    5.5412641    2.4139309   0.05343738 
    2700   0.83978943   -4.4360493    5.5417186    2.3653223  0.043641512 
    2800    0.8668502   -4.4384349    5.5419326    2.4037409  0.096457422 
    2900   0.86832167   -4.4475261    5.5419196    2.3968438  0.086424994 
    3000   0.87081921   -4.4498605    5.5410688    2.3974049  0.095463794 
    3100   0.87470169   -4.4490483    5.5395783    2.4025502   0.11612587 
    3200   0.88080045   -4.4487546    5.5421735    2.4145869   0.15286814 
    3300   0.87742526   -4.4532664    5.5431515    2.4059905   0.18017916 
    3400   0.89056829   -4.4587935    5.5484775    2.4255035   0.18390843 
    3500   0.89233723    -4.464294    5.5457706    2.4199493   0.20149752 
    3600   0.89068961   -4.4665551    5.5471534    2.4165997    0.2404599 
    3700   0.91036672   -4.4690087    5.5449547    2.4414623   0.24226903 
    3800   0.89430697   -4.4612149    5.5437717    2.4239841   0.28576052 
    3900   0.90478333   -4.4656703     5.549299    2.4407702   0.29953144 
    4000   0.90549351   -4.4678777    5.5505049    2.4408339   0.29662414 
    4100    0.9050916   -4.4691996    5.5479553    2.4363595   0.29280037 
    4200   0.91443664   -4.4740731    5.5515785    2.4491265   0.31933612 
    4300   0.91795026   -4.4762609    5.5495923    2.4502228   0.27942911 
    4400   0.91111286   -4.4759463    5.5556769    2.4463661   0.25726231 
    4500   0.92314516   -4.4701897    5.5535606    2.4680544   0.28451284 
    4600    0.9152314   -4.4665331    5.5491083    2.4553883   0.25419041 
    4700   0.91762038   -4.4631576    5.5535885    2.4668275   0.25989534 
    4800   0.92377433   -4.4596823     5.551694     2.477639   0.24158331 
    4900   0.91485099   -4.4668562     5.557516    2.4629023   0.22437066 
    5000   0.92367566   -4.4546359    5.5559222    2.4867655   0.22617495 
    5100   0.91702756   -4.4492845    5.5513233    2.4775462   0.22395955 
    5200   0.91751121   -4.4440194    5.5519788    2.4841922   0.23380813 
    5300    0.9204465   -4.4403017    5.5508897    2.4912236   0.20767894 
    5400   0.92112144   -4.4413663    5.5513916    2.4916732   0.19482623 
    5500   0.91680811   -4.4344241    5.5547582    2.4955123   0.17912211 
    5600   0.92423688   -4.4349658    5.5524889    2.5038441   0.17587469 
    5700     0.918366   -4.4290182    5.5561035    2.5046003   0.18373048 
    5800   0.92140016   -4.4275633    5.5546971    2.5091999   0.17986052 
    5900   0.92723753   -4.4258529    5.5515327    2.5165018   0.16028123 
    6000   0.91868866   -4.4247047     5.553756    2.5070503   0.12391123 
    6100   0.93309619   -4.4209205    5.5520986    2.5307878   0.17754883 
    6200   0.92466452   -4.4192587    5.5495502     2.517254   0.13601232 
    6300   0.92842952   -4.4123721    5.5494932    2.5297309   0.18280498 
    6400   0.93117252   -4.4141606    5.5531794    2.5357431   0.15722806 
    6500   0.92532058   -4.4112335    5.5499672    2.5266803   0.13289477 
    6600    0.9365192   -4.4044792    5.5510884    2.5513532   0.16780925 
    6700   0.92620403   -4.4033043    5.5511958    2.5371632   0.17510134 
    6800   0.94057823    -4.408233    5.5503486     2.552948   0.16215362 
    6900   0.93685144   -4.4073503    5.5504358    2.5483279   0.15661363 
    7000   0.93371025     -4.40557    5.5546765    2.5496372     0.162522 
    7100   0.93815722   -4.4104881    5.5549242    2.5516371   0.11056137 
    7200   0.93885519   -4.4120164    5.5575249    2.5537565   0.12114411 
    7300   0.93882348   -4.4060098    5.5537888    2.5559793   0.13147331 
    7400    0.9368658   -4.4026339     5.554089    2.5567191   0.11665597 
    7500   0.93941593   -4.4013018     5.553136    2.5609233   0.15015284 
    7600    0.9344522   -4.4014168     5.555532    2.5557588   0.13890481 
    7700   0.93979847   -4.4003187    5.5572172    2.5665613   0.15937789 
    7800   0.93523623   -4.4019935    5.5586107    2.5594368   0.16035698 
    7900   0.94060637   -4.3997868    5.5576991     2.568787   0.18321692 
    8000    0.9447727   -4.4039105    5.5541793    2.5673929   0.16087239 
    8100   0.93710612   -4.3986469    5.5637447    2.5707223   0.20444595 
    8200   0.94847879   -4.4001881     5.557301     2.579796    0.1662447 
    8300   0.94463219   -4.3969492    5.5552839    2.5752481   0.15418598 
    8400    0.9452863   -4.3936269    5.5591139    2.5833814   0.15396156 
    8500   0.94249933   -4.3872775    5.5618595    2.5882961   0.19922467 
    8600   0.94903281   -4.3935224    5.5569891    2.5869807   0.16477492 
    8700   0.94570463   -4.3895546    5.5597175    2.5886847   0.15697112 
    8800   0.94701032   -4.3873242    5.5612908     2.594447   0.16678515 
    8900   0.94427383    -4.383081    5.5571805    2.5904752   0.14227382 
    9000   0.94657207   -4.3788286    5.5544805     2.595475   0.13866376 
    9100    0.9482182   -4.3789851    5.5565971    2.5999041   0.13588637 
    9200   0.94618342   -4.3843798    5.5575719    2.5924322   0.10119676 
    9300   0.95191587   -4.3754971    5.5547483    2.6070897   0.13149421 
    9400   0.94915976   -4.3797162    5.5566885    2.6006767   0.12360875 
    9500   0.94712473   -4.3753634    5.5593678    2.6046563   0.14133665 
    9600   0.95191958   -4.3726945    5.5555875     2.610737   0.16782633 
    9700    0.9549676   -4.3818242    5.5573094    2.6079012   0.13993706 
    9800   0.95496696   -4.3741997     5.553457    2.6116723   0.15916962 
    9900   0.95371505   -4.3748517     5.558661    2.6143465   0.16225475 
   10000   0.95456343   -4.3788344    5.5621084    2.6150838   0.16856043 
   10100     0.958211   -4.3750187    5.5540802    2.6163424   0.14685451 
   10200   0.95256116   -4.3687702    5.5608773    2.6209135   0.16023943 
   10300   0.95260963   -4.3718935    5.5603518    2.6173374   0.13445784 
   10400   0.95904615   -4.3691669    5.5581639    2.6275307   0.13772929 
   10500   0.95058401   -4.3655775    5.5630172    2.6232805    0.1460643 
   10600   0.95836554   -4.3656644    5.5587771    2.6306255   0.14965702 
   10700   0.96066231   -4.3605659    5.5564548    2.6368467   0.14217742 
   10800   0.95619778   -4.3609894    5.5603826    2.6336544   0.15631629 
   10900   0.96380219   -4.3667026    5.5588183    2.6377833  0.078538041 
   11000   0.95733373   -4.3535934    5.5605491    2.6429208    0.1290499 
   11100   0.95915581   -4.3619519     5.559753    2.6364992   0.11251189 
   11200   0.96305262   -4.3580523    5.5599836    2.6464746   0.11505929 
   11300   0.95860991   -4.3471599    5.5608308    2.6515502   0.14638256 
   11400   0.95870955   -4.3594666    5.5630937    2.6416558   0.10603594 
   11500   0.96752837   -4.3574112    5.5625534    2.6563989   0.11796602 
   11600   0.96199169   -4.3538509    5.5616088    2.6507098   0.15465507 
   11700   0.96625181   -4.3545616    5.5609305    2.6557108   0.12042789 
   11800   0.96122488   -4.3443165    5.5624575    2.6599427   0.13334625 
   11900   0.96480023   -4.3539747    5.5664097    2.6595996   0.11261326 
   12000   0.96455786   -4.3485208    5.5607788    2.6590591   0.14659628 
   12100   0.96500945   -4.3441307    5.5609184     2.664266   0.15066094 
   12200   0.96827591   -4.3475055     5.559168    2.6640405    0.1444319 
   12300   0.97109021   -4.3500438    5.5573135     2.663869  0.098684265 
   12400   0.96851231   -4.3456579    5.5637657    2.6708404   0.11665127 
   12500   0.96630769   -4.3464575    5.5610062    2.6639743   0.09822361 
   12600   0.96716898   -4.3464811    5.5659483    2.6701848   0.14393899 
   12700   0.97092506   -4.3487609    5.5629314    2.6705221   0.13288192 
   12800   0.97270606   -4.3519824    5.5662885    2.6733291   0.12470171 
   12900   0.96384927   -4.3453433    5.5702053    2.6706001   0.11260617 
   13000   0.97688488   -4.3479858    5.5632025    2.6805078   0.10198291 
   13100    0.9737328   -4.3488549    5.5665947    2.6783029   0.13488757 
   13200   0.96897973   -4.3388891    5.5644794    2.6790239   0.15963477 
   13300   0.97922101   -4.3493765    5.5667332    2.6861519   0.12843127 
   13400   0.97039046   -4.3501989    5.5687069    2.6740577   0.11200333 
   13500   0.97807725   -4.3436621    5.5651876    2.6886052   0.18009819 
   13600   0.97201497   -4.3477186    5.5697351    2.6800029   0.13159664 
   13700   0.97455082   -4.3417936    5.5657718    2.6857683    0.1522752 
   13800      0.96926   -4.3391797    5.5742016    2.6888759   0.15636734 
   13900   0.97731057   -4.3435888    5.5671373    2.6894782   0.14039205 
   14000   0.97710086   -4.3401478    5.5651363    2.6906036   0.14950161 
   14100   0.97684887    -4.340978    5.5687261    2.6929852   0.16213371 
   14200   0.97829034   -4.3417624    5.5648161     2.690453   0.14601581 
   14300   0.97944483   -4.3419026     5.569962    2.6971903   0.14988316 
   14400   0.97885666   -4.3374347    5.5688585    2.6996725    0.1630686 
   14500   0.97366218   -4.3332029    5.5656274    2.6928817   0.17704298 
   14600   0.98209479   -4.3357596    5.5640414    2.7013876   0.15504834 
   14700   0.97572658   -4.3340016    5.5696171    2.6991692   0.16875889 
   14800   0.98211453   -4.3356264    5.5626429    2.7001518   0.14134655 
   14900   0.97267496   -4.3269227    5.5700288    2.7020825   0.16684129 
   15000   0.97818495   -4.3337145    5.5714823    2.7050089   0.15703822 
   15100   0.97964721   -4.3282391    5.5666064    2.7078018   0.15248117 
   15200    0.9779395   -4.3298298    5.5684778     2.705521   0.11994483 
   15300   0.98580982   -4.3325061    5.5675162    2.7136883   0.12835403 
   15400   0.97890271   -4.3287572    5.5710117    2.7105723   0.13650821 
   15500   0.98206006   -4.3258103    5.5736154    2.7208588   0.12394257 
   15600    0.9817536   -4.3277204    5.5689533    2.7138269   0.13359958 
   15700   0.98277851   -4.3260629    5.5685922    2.7166606   0.10095755 
   15800    0.9827953   -4.3159869    5.5645639    2.7227335    0.1563719 
   15900   0.97868404    -4.326547    5.5728327    2.7142754   0.13983406 
   16000   0.98428525   -4.3175113    5.5648318    2.7237119   0.16006472 
   16100   0.98250828   -4.3204832    5.5693693    2.7226121   0.13661316 
   16200   0.98256314   -4.3220001    5.5672152    2.7190234    0.1427824 
   16300   0.98517505   -4.3229617    5.5671581    2.7219224   0.12078106 
   16400   0.98017174   -4.3207821    5.5676515    2.7170907   0.15138056 
   16500   0.98285774   -4.3248503    5.5689869    2.7183868   0.14432547 
   16600   0.98416672   -4.3217167    5.5690382    2.7235351   0.18069686 
   16700   0.98482092     -4.32429    5.5687498    2.7216546    0.1605216 
   16800   0.98226912   -4.3182634    5.5683061    2.7234099   0.19902887 
   16900   0.98097529   -4.3172709    5.5706869    2.7248426   0.15345179 
   17000   0.97670625   -4.3180857    5.5715906    2.7185281   0.16087753 
   17100   0.98510179    -4.320511    5.5698516    2.7269567   0.13047702 
   17200    0.9838728   -4.3188143    5.5677387    2.7246971   0.10502389 
   17300    0.9845262   -4.3173905    5.5662152    2.7255775   0.13289432 
   17400   0.98459253   -4.3161201    5.5702384    2.7309706   0.12516766 
   17500   0.98298507   -4.3123745    5.5659302    2.7279968   0.16490215 
   17600   0.98080828   -4.3115346    5.5700284    2.7296699   0.13969534 
   17700   0.98465955   -4.3083233    5.5660999    2.7347294   0.15885813 
   17800    0.9827096   -4.3098544     5.569541    2.7337145   0.11772121 
   17900   0.99109391   -4.3170811    5.5689545    2.7384775   0.12694235 
   18000   0.99025952   -4.3122451    5.5685543    2.7416618   0.12513314 
   18100   0.98465256   -4.3124542    5.5706274    2.7351156   0.13176342 
   18200   0.99204227   -4.3149295    5.5688964    2.7419935  0.090349176 
   18300   0.98804367   -4.3079761    5.5672463     2.741299   0.07968968 
   18400   0.98367781   -4.3063099    5.5705786    2.7397489   0.12619118 
   18500   0.98293989   -4.3055599    5.5694556    2.7382691   0.11898611 
   18600   0.98736759   -4.3093831    5.5704522    2.7420838  0.098122275 
   18700    0.9859616   -4.3054277    5.5679378    2.7414159  0.080593258 
   18800    0.9812548   -4.3006341    5.5739564    2.7451682    0.1286575 
   18900     0.989905   -4.3064823    5.5656734    2.7440119  0.097095881 
   19000   0.98967917   -4.3094097    5.5708764    2.7459488   0.10931185 
   19100   0.99087977   -4.3044299    5.5660333    2.7478862   0.11620234 
   19200   0.98800585   -4.3034046    5.5678318    2.7463993   0.10569369 
   19300   0.98780444   -4.3003459    5.5711297    2.7524538   0.11944878 
   19400   0.98957864   -4.3050731    5.5734904    2.7527486   0.14773057 
   19500   0.99217901   -4.3034113     5.572082    2.7569024   0.13766021 
   19600    0.9962514   -4.3091453    5.5685071     2.753702  0.077707171 
   19700   0.99478393   -4.3077376     5.568391    2.7527924   0.13943722 
   19800    0.9959072   -4.3076751    5.5694685    2.7556172   0.14687122 
   19900    0.9894505   -4.3046221    5.5702205    2.7497375   0.12121552 
   20000   0.99207231   -4.3015309    5.5720063    2.7585471   0.13443433 
   20100   0.99090009   -4.3030121    5.5726587    2.7559599   0.13789534 
   20200   0.99891877   -4.3062003     5.566709    2.7588498  0.084440545 
   20300   0.99550175   -4.3072908    5.5727602     2.758685   0.10983434 
   20400   0.99927665   -4.3082386    5.5743289    2.7649682   0.14407212 
   20500   0.99709108   -4.3042224    5.5705136    2.7618908   0.15000484 
   20600   0.99587578   -4.2967793    5.5694334    2.7664309   0.18043135 
   20700   0.99951949   -4.3027283    5.5687236    2.7652375   0.12536095 
   20800   0.99344524   -4.3024337    5.5729988    2.7606961   0.13052179 
   20900    1.0027543   -4.3042798    5.5733961    2.7732105   0.12160856 
   21000   0.99106859   -4.2966787    5.5745342    2.7644216   0.18457624 
   21100   0.99709414   -4.3002885     5.574766    2.7700818   0.16264157 
   21200   0.99719612   -4.2975279    5.5720841    2.7703134   0.11720773 
   21300    0.9987239   -4.3012559    5.5725166    2.7693094   0.13361046 
   21400   0.99803996   -4.3002864    5.5736502    2.7703868   0.16563003 
   21500    1.0004542   -4.3004769    5.5702152    2.7703824   0.10372875 
   21600   0.99599982   -4.2993025    5.5740329    2.7686932   0.14919536 
   21700   0.99610026   -4.2977074    5.5732365    2.7696426   0.12766311 
   21800   0.99703967   -4.2990728    5.5752303      2.77168   0.13167123 
   21900    0.9974423   -4.3004095    5.5702474    2.7659644   0.13446259 
   22000    1.0015731   -4.2976589    5.5666461    2.7713097   0.11360532 
   22100    0.9936678   -4.2980746    5.5771292    2.7695194   0.12869049 
   22200    1.0015606   -4.3009171    5.5725652    2.7739519   0.14265936 
   22300    1.0027873   -4.3003825    5.5699697     2.773731   0.14666422 
   22400   0.99492055    -4.297762    5.5755755    2.7701575   0.16868287 
   22500   0.99667114   -4.2992324    5.5747833    2.7705207   0.16898019 
   22600   0.99816812   -4.3000094    5.5698296    2.7670354   0.14673289 
   22700    1.0024163   -4.3035296    5.5677156    2.7677733   0.12279849 
   22800   0.99693813   -4.3002982    5.5676591    2.7627311   0.13413704 
   22900   0.99649239   -4.2979361    5.5720425     2.768808    0.1285551 
   23000   0.99047561   -4.2956487    5.5717599    2.7617879   0.16472437 
   23100   0.99258299   -4.2994653    5.5746202    2.7639926   0.12655368 
   23200   0.99498372   -4.2958779    5.5699774    2.7665381  0.085813031 
   23300   0.99482894   -4.2961821    5.5712662    2.7672906   0.14407003 
   23400   0.99661917   -4.2935632    5.5703144     2.771643   0.11478512 
   23500   0.99498734   -4.2954342    5.5740698    2.7710797   0.13457643 
   23600   0.99474235    -4.293243    5.5709759    2.7698095   0.14794696 
   23700    1.0002203   -4.2972769    5.5706928    2.7737093   0.11985831 
   23800   0.99291601   -4.2894208    5.5757885    2.7757048   0.15754693 
   23900   0.99453511   -4.2946155    5.5766145    2.7737648   0.13073173 
   24000    1.0008462   -4.2924584    5.5694413    2.7782151   0.13358242 
   24100   0.99285525   -4.2917994    5.5760347    2.7734814   0.10562705 
   24200   0.99359469   -4.2931858    5.5766728    2.7738422   0.12191912 
   24300   0.99839699   -4.2982688    5.5748659    2.7741555    0.1356967 
   24400   0.99737011   -4.2947832    5.5763305    2.7775655   0.11698024 
   24500   0.99749029   -4.2937425    5.5756298    2.7780858   0.11836222 
   24600   0.99716555   -4.2917224    5.5752511    2.7792401   0.12382394 
   24700   0.99969108   -4.2972374    5.5755516    2.7778138   0.12797371 
   24800   0.99687673   -4.2920109    5.5720328       2.7753   0.14142544 
   24900   0.99336975   -4.2835686    5.5721096    2.7785588   0.14516408 
   25000    1.0024081   -4.2947958     5.568465    2.7772443  0.082555381 
   25100   0.99470854   -4.2890119    5.5704383    2.7734524   0.14000394 
   25200   0.99568501   -4.2853695    5.5694917    2.7776128   0.15682333 
   25300   0.99981234   -4.2935989    5.5692491    2.7753316   0.10908212 
   25400   0.99279428     -4.28815    5.5747084     2.775713   0.10813295 
   25500    1.0000565   -4.2911478    5.5710046    2.7799045   0.10665254 
   25600   0.99230782   -4.2877103    5.5704242    2.7711388    0.1128847 
   25700    0.9928765   -4.2831763    5.5717345    2.7778361   0.11500838 
   25800   0.99893553   -4.2880152    5.5709643    2.7813154  0.099261181 
   25900   0.99450885     -4.28714    5.5725839    2.7771702   0.10994821 
   26000   0.99908755   -4.2825757    5.5754926    2.7915111   0.11734119 
   26100   0.99632688   -4.2898253    5.5750047    2.7796327  0.094797469 
   26200   0.99949298   -4.2861641    5.5712896    2.7843279   0.10179386 
   26300   0.99473486   -4.2821934    5.5768469    2.7867189  0.081225971 
   26400   0.99395492   -4.2844411    5.5731694    2.7796238  0.093363419 
   26500   0.99814212   -4.2822684    5.5737547    2.7886625   0.12912213 
   26600   0.99137791   -4.2830171     5.574805     2.778818   0.11609471 
   26700   0.99238836   -4.2804107    5.5722175    2.7803526   0.14241961 
   26800   0.98958195   -4.2760042    5.5710537    2.7793858   0.11660188 
   26900   0.99326813   -4.2832214    5.5759197    2.7825636  0.088314336 
   27000   0.99789234   -4.2846089    5.5698787    2.7820712  0.081201985 
   27100   0.99134878   -4.2803864    5.5754747    2.7820746    0.1206796 
   27200   0.99646594   -4.2842375    5.5745718    2.7849963   0.11338157 
   27300   0.99374089   -4.2888593    5.5779749      2.77969   0.12194139 
   27400   0.99486278   -4.2791604    5.5724573    2.7855541   0.16307791 
   27500   0.99621643   -4.2910701     5.577831    2.7810486   0.14205283 
   27600   0.99787898   -4.2872262    5.5752326     2.784788   0.13718812 
   27700   0.99985723   -4.2859875    5.5712445    2.7850058   0.13966885 
   27800    1.0027623   -4.2934147    5.5723744    2.7830659   0.11423032 
   27900    1.0004431   -4.2820669    5.5735227    2.7920833   0.15676297 
   28000    1.0066356   -4.2884132    5.5674392     2.788942   0.14743416 
   28100     1.003825    -4.289285    5.5716928    2.7881081   0.14487527 
   28200    1.0027422   -4.2854118    5.5772092    2.7958735   0.16924173 
   28300    1.0025531   -4.2868527    5.5710145    2.7879543   0.14583303 
   28400    1.0015111    -4.288039    5.5752889    2.7894794   0.10478928 
   28500    1.0030766   -4.2881894     5.576364    2.7927523   0.11347941 
   28600   0.99856049   -4.2892109    5.5788509    2.7874437   0.10329899 
   28700    1.0019063   -4.2849429    5.5701659    2.7880454   0.10579013 
   28800    1.0005341   -4.2839151    5.5734683    2.7903173   0.12216921 
   28900   0.99988636    -4.287182    5.5753294    2.7879399   0.10498958 
   29000   0.99943039   -4.2836032    5.5743538    2.7898591    0.1184945 
   29100    1.0065165   -4.2886435    5.5715895    2.7926836  0.091726623 
   29200   0.99993561   -4.2872637     5.572186    2.7847886  0.099546544 
   29300    1.0018411   -4.2844599    5.5736547    2.7919193   0.11590333 
   29400   0.99414389   -4.2792241    5.5750985    2.7870534   0.13055424 
   29500   0.99715332   -4.2831483    5.5748027    2.7873474  0.099859023 
   29600   0.99724302   -4.2813754    5.5783906    2.7928428   0.11013569 
   29700    0.9989549   -4.2829657    5.5757019    2.7911316   0.12479621 
   29800    1.0021623   -4.2853429    5.5746357    2.7924991   0.14572868 
   29900   0.99800809   -4.2835578    5.5758677     2.789285   0.15131108 
   30000    1.0000359   -4.2835364    5.5749879    2.7914683    0.1312952 
   30100   0.99682081   -4.2816336    5.5762588    2.7898195   0.11296502 
   30200   0.99521413   -4.2791153    5.5768803    2.7905492   0.11043803 
   30300    1.0025204   -4.2880196    5.5771819    2.7929059   0.10230778 
   30400   0.99776275   -4.2808775     5.576583    2.7923126   0.16411039 
   30500    1.0000632   -4.2810301    5.5744102    2.7934378   0.13900979 
   30600    1.0063164   -4.2873808    5.5721091    2.7941656   0.10176796 
   30700   0.99924462   -4.2821115    5.5759643    2.7926827   0.13702403 
   30800    1.0021021   -4.2843054    5.5765852    2.7953958   0.12045724 
   30900   0.99874107   -4.2826244    5.5771343    2.7925844   0.15328663 
   31000    1.0014413   -4.2829561    5.5751282    2.7942969   0.13991069 
   31100   0.99448093   -4.2757416    5.5795977    2.7955407   0.16009409 
   31200   0.99727297   -4.2788742    5.5748625    2.7918608   0.15169811 
   31300    0.9986154    -4.275062    5.5734671    2.7962912   0.14335916 
   31400     1.002954   -4.2820876    5.5735553    2.7958615  0.084688609 
   31500   0.99894125   -4.2768704    5.5728579    2.7943624   0.10950672 
   31600   0.99799141   -4.2737898    5.5747569    2.7979173   0.13580062 
   31700    1.0005549   -4.2801484    5.5717332      2.79238   0.11398168 
   31800     1.000297     -4.28058    5.5760926     2.795921   0.12149027 
   31900   0.99911497   -4.2760543    5.5724468    2.7950279   0.12276517 
   32000    1.0021635    -4.281926     5.575403     2.796685   0.11799032 
   32100    1.0014957   -4.2751002    5.5720725    2.7991787      0.10227 
   32200   0.99606561   -4.2800007     5.577744    2.7918048   0.11324616 
   32300    1.0066918   -4.2801476    5.5710382    2.8008911   0.10533665 
   32400    1.0041042   -4.2789628    5.5700697    2.7972259    0.1239421 
   32500    1.0020309   -4.2800396    5.5741772    2.7971468  0.093226889 
   32600      1.00132   -4.2784798    5.5771584    2.8006214  0.094291203 
   32700   0.99090346   -4.2741035    5.5797839    2.7919989    0.1034654 
   32800    1.0004677   -4.2759964    5.5768999    2.8015679  0.086165421 
   32900    0.9945701   -4.2744864       5.5796    2.7969318    0.1346432 
   33000   0.99816622   -4.2722737    5.5759828    2.8009213  0.099331877 
   33100   0.99697645   -4.2708222    5.5767523    2.8013577    0.1041126 
   33200   0.99258792   -4.2670501    5.5761288    2.7979237  0.096978783 
   33300    1.0003443   -4.2698228    5.5754642    2.8061208   0.09520903 
   33400   0.99841585   -4.2682088    5.5708794    2.8002574  0.094525186 
   33500   0.99182548   -4.2634101    5.5761873    2.8004786  0.086744816 
   33600   0.99635204   -4.2680349    5.5754468     2.801903  0.079668553 
   33700   0.99392282   -4.2703495    5.5763748    2.7968726  0.088689607 
   33800    1.0031193    -4.274384    5.5729066    2.8031644  0.093553193 
   33900   0.99888921   -4.2711717    5.5724081    2.7995331   0.10037291 
   34000   0.99367709   -4.2706435    5.5737806    2.7936159  0.087596462 
   34100   0.99435107    -4.270709    5.5779911    2.7987718  0.092092638 
   34200   0.99778085   -4.2696545     5.570799    2.7977787   0.12386233 
   34300     1.001607   -4.2719677    5.5710347    2.8014404   0.12590817 
   34400    1.0013593   -4.2725039    5.5729087    2.8024067  0.084470537 
   34500    1.0018281   -4.2729167    5.5715077     2.801296  0.072540104 
   34600   0.99491266   -4.2679305     5.572478    2.7968796   0.10177316 
   34700   0.99783232   -4.2690216    5.5709423    2.7986322   0.10647696 
   34800   0.99411708   -4.2716553    5.5748819    2.7943654   0.12214296 
   34900   0.99695692   -4.2718788    5.5724644    2.7959841  0.088668479 
   35000    1.0006758   -4.2695775    5.5706567    2.8020557  0.086329105 
   35100   0.99056103    -4.269247    5.5774643     2.794022  0.079687851 
   35200   0.99738659   -4.2676847    5.5728768    2.8012349   0.13524893 
   35300    1.0024409   -4.2713539    5.5640597    2.7963299   0.10412315 
   35400   0.99544457   -4.2666667     5.571907    2.7983703   0.10807241 
   35500   0.99954119   -4.2705008    5.5741105    2.8028844  0.069482552 
   35600   0.99643685   -4.2721213    5.5721433    2.7946403  0.077661268 
   35700   0.99627011   -4.2723756    5.5779349    2.7999275  0.056044196 
   35800    1.0004741   -4.2701514    5.5703216    2.8008442   0.10086468 
   35900    1.0006868   -4.2705019    5.5702762    2.8007674  0.078702093 
   36000    1.0010753   -4.2719708    5.5753475    2.8049525  0.095302794 
   36100   0.99740555   -4.2693845    5.5745537    2.8012406   0.13929065 
   36200    1.0013834   -4.2732793    5.5728696    2.8016282  0.083290948 
   36300   0.99943261   -4.2693694    5.5729399    2.8026824  0.076592389 
   36400   0.99285781   -4.2676098    5.5764308    2.7980709   0.12447741 
   36500   0.99713553     -4.27606    5.5746379    2.7942441   0.11416644 
   36600    1.0011642   -4.2737894    5.5711425    2.7990622   0.10940926 
   36700   0.99840451   -4.2737483    5.5735365     2.797358  0.098634276 
   36800   0.99891308   -4.2755877    5.5725902    2.7953351   0.11794305 
   36900   0.99755486   -4.2680687    5.5700857    2.7983123   0.12355202 
   37000    1.0026044   -4.2761062    5.5706276    2.7983909   0.10999407 
   37100   0.99566305   -4.2707374    5.5776383    2.8003585    0.1562023 
   37200   0.99740753   -4.2728945    5.5760743    2.7992541   0.10865578 
   37300    1.0004242   -4.2761779    5.5727525    2.7971739  0.093677669 
   37400   0.99670118   -4.2745217     5.575502    2.7959951  0.099827251 
   37500   0.99889603   -4.2794672    5.5771106    2.7959504   0.10711282 
   37600    0.9984521   -4.2768729    5.5730816    2.7938498   0.10818533 
   37700    1.0005794   -4.2774343    5.5752403     2.798638    0.1155308 
   37800   0.99636215   -4.2744469    5.5721368    2.7921961    0.1425198 
   37900    1.0029122   -4.2813972    5.5718282    2.7947621   0.11398971 
   38000     1.000209   -4.2856178    5.5797628    2.7944213   0.12457897 
   38100   0.99587139   -4.2814771    5.5792715    2.7915646   0.13127269 
   38200    1.0037927   -4.2800667    5.5724589    2.7980441   0.13786414 
   38300   0.99999286   -4.2788657    5.5749512    2.7960377  0.097034315 
   38400    1.0005401   -4.2751762    5.5766412     2.802238   0.12119961 
   38500    0.9993639   -4.2797674    5.5787251    2.7979665   0.13030605 
   38600   0.99738994   -4.2743519    5.5781461    2.7998421   0.11420208 
   38700    1.0092438   -4.2829837    5.5723804    2.8032251   0.14562184 
   38800    1.0034002   -4.2832416    5.5736584    2.7954798   0.16795051 
   38900    1.0079945   -4.2838545    5.5749026    2.8030025   0.16597191 
   39000    1.0081017   -4.2901943    5.5740608    2.7959816   0.15828751 
   39100    1.0040079   -4.2862446    5.5787095    2.7984397   0.16226333 
   39200    1.0051877   -4.2841299    5.5802147    2.8038291   0.16807195 
   39300    1.0082482   -4.2903582    5.5760336    2.7980103   0.12563807 
   39400    1.0042087   -4.2794636    5.5759451    2.8027573   0.17600747 
   39500    1.0072599   -4.2867285    5.5726202    2.7967443   0.13159409 
   39600    1.0048863   -4.2914482    5.5800875    2.7959316   0.14313159 
   39700    1.0083672   -4.2876441    5.5743641    2.7992333   0.15784137 
   39800    1.0069629   -4.2875136    5.5746478    2.7975413   0.17452694 
   39900    1.0095443   -4.2855987    5.5721266    2.8008069   0.16890483 
   40000     1.006085   -4.2899846    5.5770002    2.7961058   0.15444816 
   40100    1.0060029   -4.2882452    5.5810409    2.8017627   0.16472086 
   40200    1.0010825   -4.2804841    5.5767047    2.7978072   0.15965018 
   40300    1.0029548    -4.279336    5.5741551    2.7992141   0.15378142 
   40400    1.0000371   -4.2811194    5.5829491    2.8018484   0.15634368 
   40500    1.0036863   -4.2860118    5.5790917     2.798572   0.10969318 
   40600    1.0064011   -4.2859664     5.578749     2.802347    0.1137958 
   40700   0.99919452   -4.2783533    5.5789863    2.7993877   0.14683043 
   40800    1.0046768   -4.2800264    5.5776938    2.8046453  0.095689896 
   40900    1.0027324    -4.282765    5.5763347    2.7976311   0.10386146 
   41000    1.0016373   -4.2794138    5.5781046    2.8011095   0.12860141 
   41100    1.0012124    -4.278037    5.5721718    2.7959163   0.13054908 
   41200   0.99829764   -4.2805644    5.5773729    2.7942179   0.13236812 
   41300    1.0051792   -4.2778276    5.5694379    2.7993418   0.15058825 
   41400   0.99937461   -4.2791045    5.5749328    2.7948531   0.12886967 
   41500   0.99965566   -4.2784014    5.5749277    2.7959728  0.093736836 
   41600   0.99548298   -4.2692506    5.5735731      2.79751   0.14800267 
   41700   0.99922583   -4.2803974    5.5775635    2.7959678  0.097249956 
   41800     1.002939    -4.276818    5.5728528    2.8004062   0.10682442 
   41900    1.0002104   -4.2736979    5.5742376    2.8008182   0.12628008 
   42000    1.0060195   -4.2818384    5.5722765      2.79943  0.088941225 
   42100    1.0013385   -4.2758494    5.5765489    2.8026701   0.10735421 
   42200    0.9972133   -4.2704663    5.5776864     2.803003  0.096482004 
   42300      1.00143   -4.2739504    5.5730253    2.8011828    0.1188757 
   42400    1.0005699   -4.2719994    5.5748246     2.803643   0.11304693 
   42500    1.0002699   -4.2744384    5.5765154    2.8024448   0.10591315 
   42600    0.9989929   -4.2763818    5.5770195      2.79909   0.10757442 
   42700   0.99775567   -4.2688316      5.57676    2.8045249   0.13294413 
   42800   0.99887242   -4.2722347     5.575727    2.8017639   0.12850968 
   42900    1.0026875   -4.2746342    5.5721911     2.801551   0.07869077 
   43000    0.9995774    -4.264643    5.5702955    2.8049815  0.084055884 
   43100   0.99492613   -4.2695896    5.5778863     2.800649  0.055139361 
   43200   0.99755305   -4.2712443    5.5778329    2.8028813  0.061238195 
   43300   0.99179525   -4.2617493    5.5738319    2.7997387   0.10798439 
   43400    0.9966256   -4.2640122    5.5736822    2.8045714   0.11760204 
   43500   0.99472211   -4.2665768    5.5763627    2.8018322  0.098718351 
   43600   0.99874584   -4.2628254     5.569009    2.8042654   0.11641061 
   43700   0.99429723   -4.2678231    5.5739057    2.7974915  0.076253002 
   43800   0.99260488   -4.2698357    5.5791903    2.7982252   0.10100052 
   43900   0.99643723   -4.2727148    5.5765725    2.7984766  0.065623659 
   44000   0.99493271   -4.2681264    5.5727909    2.7970267  0.077845923 
   44100   0.99944241   -4.2734061    5.5765649    2.8022853  0.067984332 
   44200   0.99557837   -4.2677578    5.5724546    2.7980274   0.10358956 
   44300   0.99755079   -4.2706962     5.574186     2.799779  0.097491798 
   44400   0.99224091   -4.2664067    5.5766977    2.7986156  0.096162483 
   44500    1.0000778   -4.2729907    5.5725915    2.7996804   0.08540569 
   44600   0.99801856   -4.2757077     5.575341    2.7966242   0.10752922 
   44700   0.99353685   -4.2696199    5.5771245     2.797773  0.093684756 
   44800    1.0025719   -4.2735758    5.5694066    2.7996514  0.092348971 
   44900   0.99518715   -4.2709349     5.574706    2.7965149  0.099364401 
   45000    1.0013851   -4.2751797    5.5730451    2.7999059  0.081581145 
   45100   0.99541985    -4.275082    5.5769366    2.7949474  0.065905765 
   45200    1.0011892   -4.2785426    5.5772654    2.8004694  0.083774368 
   45300    1.0015693   -4.2763871    5.5734637    2.7993934    0.0921053 
   45400   0.99904145    -4.276932    5.5769049    2.7984981  0.091614374 
   45500    1.0019802   -4.2757662    5.5789523    2.8061193   0.12092708 
   45600   0.99941554   -4.2759597    5.5732169    2.7963435   0.11097342 
   45700   0.99854213   -4.2769525    5.5782718    2.7990955  0.083730647 
   45800   0.99416953   -4.2676323     5.575744    2.7993291  0.083358564 
   45900    1.0010077   -4.2755193    5.5709527    2.7969078  0.077828883 
   46000   0.99842753    -4.269894    5.5726357    2.8003459   0.12354951 
   46100    1.0012831   -4.2729362    5.5698988    2.7988501   0.11945127 
   46200    1.0021262   -4.2787521    5.5696329     2.794033  0.088180093 
   46300    1.0041728   -4.2771473    5.5725395    2.8016141  0.098030148 
   46400   0.99706865   -4.2716534    5.5719463    2.7958589   0.12572835 
   46500    1.0037137   -4.2795297     5.574433    2.8004366   0.10656611 
   46600   0.99644934   -4.2703455    5.5769401    2.8012316   0.15097049 
   46700   0.99808701   -4.2762546    5.5740717    2.7949107   0.14746118 
   46800    1.0011983   -4.2774056    5.5783648    2.8027195   0.14563413 
   46900   0.99902199   -4.2817275    5.5778319    2.7946004  0.097639043 
   47000    1.0054508   -4.2786774    5.5718205    2.8012821   0.12705541 
   47100   0.99925737   -4.2743157    5.5715358    2.7960691  0.093392716 
   47200   0.99734958   -4.2739955    5.5739517    2.7959437   0.12531986 
   47300   0.99923355   -4.2749075    5.5761918    2.8000975   0.11409217 
   47400   0.99535008   -4.2768858    5.5788159    2.7949183   0.08386128 
   47500    1.0009899   -4.2764301    5.5785426    2.8035603  0.098667619 
   47600   0.99851818   -4.2742966    5.5730216    2.7964652   0.10307574 
   47700   0.99417508   -4.2727789    5.5780284    2.7964753   0.10488267 
   47800   0.99567936   -4.2732924    5.5774877    2.7976774   0.10598465 
   47900   0.99425608   -4.2712936    5.5771985    2.7972521  0.081987912 
   48000   0.99685869   -4.2704289    5.5760159    2.8008382   0.11461216 
   48100    0.9951885   -4.2682333    5.5771065    2.8016191   0.14304962 
   48200   0.99664645   -4.2780625    5.5785253    2.7953955   0.11477958 
   48300    1.0003491   -4.2690607    5.5745847    2.8060105   0.12501623 
   48400   0.99493953     -4.27267    5.5763101    2.7960125   0.13068514 
   48500   0.99792332   -4.2685885    5.5744239    2.8026834   0.12438971 
   48600    1.0032128   -4.2703166    5.5702169    2.8046823   0.10435454 
   48700   0.99371496   -4.2666788    5.5723871    2.7962439   0.10175292 
   48800   0.99932202   -4.2670895    5.5760904    2.8079468   0.11713642 
   48900   0.99140586   -4.2660694    5.5759465    2.7969491  0.078813044 
   49000   0.99870716   -4.2759936    5.5777222    2.7997523  0.073076737 
   49100    0.9977538   -4.2726998    5.5742339    2.7981278  0.093385092 
   49200   0.99244915   -4.2691006    5.5761738      2.79571  0.088433649 
   49300   0.99818399   -4.2727789    5.5750952    2.7995552  0.062717433 
   49400    0.9955019   -4.2701201    5.5736876    2.7967834  0.092837884 
   49500   0.99714555   -4.2745237    5.5765299    2.7976875   0.11760862 
   49600   0.99500699   -4.2732971    5.5763587    2.7955352  0.099057707 
   49700    0.9990536   -4.2738038    5.5759279    2.8006674  0.073542035 
   49800   0.99956174   -4.2800422    5.5707111    2.7899745  0.070775638 
   49900    1.0035027   -4.2725386    5.5682827     2.800961  0.086634695 
   50000   0.99548219   -4.2715346    5.5719427    2.7935945    0.1022121 
   50100   0.99590067   -4.2708777    5.5737631    2.7966996  0.086310787 
   50200   0.99729741   -4.2725832    5.5725641    2.7958901   0.07353307 
   50300   0.99234153   -4.2676805    5.5726918    2.7934868  0.090354632 
   50400    1.0010183   -4.2701061    5.5732645    2.8046487   0.10280666 
   50500    0.9994657   -4.2701701     5.570943    2.7999344   0.11271314 
Loop time of 499.9 on 32 procs for 50000 steps with 40455 atoms

Performance: 17283.455 tau/day, 100.020 timesteps/s
92.3% CPU use with 4 MPI tasks x 8 OpenMP threads

MPI task timing breakdown:
Section |  min time  |  avg time  |  max time  |%varavg| %total
---------------------------------------------------------------
Pair    | 103.42     | 205.85     | 299.48     | 487.5 | 41.18
Bond    | 3.1972     | 5.8919     | 8.0048     |  76.8 |  1.18
Neigh   | 51.725     | 53.866     | 56.027     |  29.2 | 10.78
Comm    | 49.075     | 163.72     | 279.56     | 664.3 | 32.75
Output  | 10.119     | 10.132     | 10.147     |   0.4 |  2.03
Modify  | 32.532     | 56.778     | 75.044     | 240.1 | 11.36
Other   |            | 3.665      |            |       |  0.73

Nlocal:    10113.8 ave 13444 max 5389 min
Histogram: 1 0 0 0 1 0 0 0 1 1
Nghost:    5414.5 ave 6405 max 4224 min
Histogram: 1 0 0 1 0 0 0 0 1 1
Neighs:    337883 ave 480940 max 154511 min
Histogram: 1 0 0 0 1 0 0 0 1 1

Total # of neighbors = 1351533
Ave neighs/atom = 33.4083
Ave special neighs/atom = 1.28736
Neighbor list builds = 3114
Dangerous builds = 0

unfix 			1
unfix 			2
unfix 			30
unfix 			300
unfix 			40
unfix 			400
undump 			1
###########################################################
############### Post parameters############################
reset_timestep  	0
velocity 		all create $T 293849 mom yes rot yes dist gaussian
velocity 		all create 1 293849 mom yes rot yes dist gaussian
fix 			1 all nvt temp $T $T 0.3
fix 			1 all nvt temp 1 $T 0.3
fix 			1 all nvt temp 1 1 0.3
fix_modify 		1 temp myTemp
fix 			30 all wall/reflect zhi EDGE
fix 			300 all wall/reflect zlo EDGE
fix 			40 all wall/reflect xhi EDGE
fix 			400 all wall/reflect xlo EDGE

#compute 		bins ham chunk/atom bin/3d x 60.0 1.149 y 0.0 1.143 z 2.8 1.1391 bound #			x 60.0 160.0 bound y 0.0 34.4 bound z 2.8 29.0
#fix  			d ham ave/chunk 2 5 10 bins density/number norm sample #			file small_bond_bins_dens.dat

#compute 		bins1 ham chunk/atom bin/3d x 60.0 1 y 0.0 1.1467 z 2.8 1.1392 bound #			x 60.0 90.0 bound y 0.0 34.4 bound z 2.8 29.0
#fix  			d1 ham ave/chunk 2 5 40 bins1 density/number norm sample #			file left_small_bond_bins_dens.dat

#compute 		bins2 ham chunk/atom bin/3d x 120.0 1 y 0.0 1.1467 z 2.8 1.1392 bound #			x 120.0 150.0 bound y 0.0 34.4 bound z 2.8 29.0
#fix  			d2 ham ave/chunk 2 5 40 bins2 density/number norm sample #			file right_small_bond_bins_dens.dat

thermo_style    	custom step temp pe etotal
thermo_modify	        temp myTemp
thermo			100
#fix            		extra ham print 1000 "$(step) $(temp) $(pe)" append iteration_info.dat #			screen no

#restart     		100000 water.restart.mpiio
dump			1 all custom 200 tank.dat id type x y z
run			100000
Per MPI rank memory allocation (min/avg/max) = 13.93 | 20.27 | 22.62 Mbytes
Step Temp PotEng TotEng 
       0            1    1.3007729    2.8007359 
     100    1.0051057    1.3014913    2.8091126 
     200   0.99132623     1.302843    2.7897956 
     300    1.0025484    1.3014107    2.8051962 
     400   0.99000566    1.3084949    2.7934667 
     500   0.99498637    1.3124234    2.8048661 
     600    1.0048588    1.3128516    2.8201026 
     700    1.0005627    1.3079353    2.8087423 
     800    1.0049685    1.3159938    2.8234093 
     900   0.99711469    1.3169836    2.8126186 
    1000   0.99682726    1.3142842    2.8094881 
    1100   0.99482271     1.312119    2.8043162 
    1200   0.99528614    1.3100585    2.8029508 
    1300   0.99918939    1.3173785    2.8161256 
    1400    1.0021517    1.3220463    2.8252367 
    1500    1.0053955    1.3152327    2.8232886 
    1600   0.99912512    1.3217314     2.820382 
    1700   0.99952192     1.317159    2.8164048 
    1800   0.99038766    1.3190431    2.8045879 
    1900    1.0017962    1.3116411    2.8142982 
    2000   0.99788832    1.3119489    2.8087444 
    2100    1.0016708    1.3168889     2.819358 
    2200    1.0080446    1.3211087    2.8331383 
    2300    1.0035579    1.3202391    2.8255388 
    2400    1.0063987    1.3150514    2.8246122 
    2500    1.0009381    1.3130684    2.8144385 
    2600   0.99924457    1.3121214    2.8109512 
    2700   0.99983702    1.3091516    2.8088701 
    2800    1.0014525    1.3066304    2.8087719 
    2900   0.99976587    1.3013847    2.8009964 
    3000    1.0011345    1.3030604     2.804725 
    3100   0.99329631    1.3075535    2.7974612 
    3200   0.99610197    1.3055025    2.7996186 
    3300    1.0066526    1.3026616    2.8126032 
    3400    1.0012413    1.3066608    2.8084857 
    3500    1.0046413    1.3068105    2.8137352 
    3600     1.000542    1.3041167    2.8048926 
    3700    0.9970263    1.3004164    2.7959189 
    3800    1.0007684    1.2950898    2.7962054 
    3900   0.99570429    1.3040066    2.7975261 
    4000   0.99695968    1.2999591    2.7953617 
    4100   0.99816454     1.305689    2.8028988 
    4200    1.0008295    1.3032134    2.8044205 
    4300    1.0058448    1.3011836    2.8099134 
    4400    1.0139517    1.2981596    2.8190496 
    4500    1.0048123    1.2984224    2.8056035 
    4600    1.0011839     1.296982    2.7987207 
    4700   0.99927434     1.296183    2.7950574 
    4800   0.99810561    1.2961049    2.7932263 
    4900   0.99613356    1.2948705    2.7890339 
    5000    1.0000817    1.2950477    2.7951333 
    5100    1.0035238    1.2921348    2.7973833 
    5200    1.0026743    1.2999969    2.8039712 
    5300    1.0101647    1.2975152    2.8127248 
    5400    1.0062861    1.2968768    2.8062686 
    5500    1.0003915    1.2968983    2.7974484 
    5600   0.99351878    1.2995424    2.7897838 
    5700   0.99841491    1.2930171    2.7906025 
    5800   0.99631876     1.296367    2.7908082 
    5900     1.005633    1.2924714    2.8008836 
    6000    1.0035694    1.2906616    2.7959785 
    6100    1.0022078    1.2994628    2.8027373 
    6200    1.0042191    1.2855486    2.7918401 
    6300   0.99057235    1.2914958    2.7773176 
    6400   0.99571405    1.2937026    2.7872367 
    6500   0.99545987    1.2872433    2.7803962 
    6600   0.99865087     1.294075    2.7920143 
    6700   0.99696356    1.3002764    2.7956848 
    6800    1.0021558    1.2909748    2.7941713 
    6900    1.0007333    1.2972393    2.7983021 
    7000   0.99891628     1.293837    2.7921743 
    7100   0.99984397    1.2877054    2.7874343 
    7200   0.99948876    1.2930639    2.7922599 
    7300   0.99952664    1.2898599    2.7891128 
    7400   0.99535043    1.2972449    2.7902336 
    7500    1.0026885     1.298205    2.8022006 
    7600    1.0066819    1.2920813    2.8020667 
    7700    1.0072789    1.3048021    2.8156831 
    7800    1.0040237    1.3043624    2.8103607 
    7900    1.0006817    1.3009303    2.8019158 
    8000    1.0038561    1.2969933    2.8027403 
    8100    1.0017046    1.2918584     2.794378 
    8200    1.0006486    1.2871774    2.7881131 
    8300   0.99819706    1.2955717    2.7928302 
    8400   0.99899843    1.3002125    2.7986731 
    8500   0.99901136    1.3007282    2.7992082 
    8600    1.0066854    1.3033966    2.8133875 
    8700    1.0029462     1.295898    2.8002801 
    8800   0.99425633    1.2978981    2.7892457 
    8900   0.99738132    1.2967054    2.7927404 
    9000   0.99538174    1.2912316    2.7842673 
    9100    1.0009384    1.2983947    2.7997652 
    9200    1.0049829    1.2937613    2.8011984 
    9300    1.0054889    1.2948615    2.8030575 
    9400   0.99911765     1.301223    2.7998624 
    9500   0.99755408    1.2974089    2.7937031 
    9600   0.99628725    1.2927904    2.7871844 
    9700   0.99122899    1.3006195    2.7874262 
    9800     1.004237     1.296939    2.8032573 
    9900    1.0031394     1.301951    2.8066229 
   10000    1.0059546    1.3029696    2.8118643 
   10100    1.0025817    1.2998041    2.8036395 
   10200   0.99804512    1.3022243    2.7992549 
   10300   0.99778335     1.297088     2.793726 
   10400   0.99710592    1.2949446    2.7905665 
   10500   0.99838905    1.2987502    2.7962968 
   10600   0.99873283    1.3039325    2.8019948 
   10700    1.0051944    1.3031567    2.8109111 
   10800    1.0021076    1.3084248    2.8115491 
   10900    1.0033244    1.3001779    2.8051273 
   11000    1.0028017    1.3000971    2.8042624 
   11100    1.0020809    1.2947422    2.7978263 
   11200   0.99822945    1.2970416    2.7943488 
   11300    1.0005966    1.3008954    2.8017532 
   11400     1.000234    1.3006484    2.8009623 
   11500    1.0077036    1.3076459    2.8191639 
   11600    1.0054018    1.3121544    2.8202198 
   11700    1.0037447     1.309403    2.8149829 
   11800     1.001949    1.3069505    2.8098369 
   11900   0.99755852    1.3066346    2.8029354 
   12000    1.0007288    1.3003891    2.8014452 
   12100    0.9966227    1.3057974    2.8006945 
   12200   0.99934429    1.3045801    2.8035594 
   12300    1.0034408    1.3030437    2.8081677 
   12400    1.0070693    1.3101741    2.8207406 
   12500    1.0040772    1.3095358    2.8156143 
   12600      1.00002    1.3108527    2.8108456 
   12700    1.0008484    1.3093028    2.8105383 
   12800     1.001603    1.3036228    2.8059902 
   12900    1.0002018      1.30648    2.8067457 
   13000   0.99918573    1.3092859    2.8080275 
   13100   0.99617697    1.3113942    2.8056227 
   13200    1.0015257    1.3081246    2.8103761 
   13300    1.0070584    1.3041514    2.8147017 
   13400    1.0037825    1.3011373    2.8067738 
   13500   0.99907884    1.3032199    2.8018011 
   13600    0.9974746     1.297132    2.7933069 
   13700    0.9965276    1.2971647    2.7919191 
   13800   0.99519877    1.3073679    2.8001291 
   13900   0.99862022    1.3053578     2.803251 
   14000     1.001936     1.303238    2.8061047 
   14100    1.0005977    1.3070308    2.8078902 
   14200    1.0000965    1.3017442    2.8018519 
   14300   0.99344567    1.3080422    2.7981739 
   14400    1.0040848    1.3015137    2.8076036 
   14500    1.0046735    1.2916782    2.7986512 
   14600    1.0031391    1.2971737    2.8018451 
   14700    1.0033927    1.2942405    2.7992923 
   14800    1.0016645    1.2864764    2.7889359 
   14900    1.0014367    1.2890678    2.7911857 
   15000   0.99786817    1.2871061    2.7838714 
   15100   0.99971424    1.2899521    2.7894864 
   15200   0.99746555    1.2956207     2.791782 
   15300    1.0040108    1.2905986    2.7965776 
   15400    1.0031559    1.2949128    2.7996095 
   15500   0.99922909    1.3009277    2.7997343 
   15600    1.0040615    1.2931154    2.7991705 
   15700   0.99901779    1.2906715    2.7891612 
   15800   0.99623138    1.2917744    2.7860845 
   15900   0.99343314    1.2898523    2.7799652 
   16000   0.99240743    1.3002164    2.7887907 
   16100   0.99775398    1.3003497    2.7969437 
   16200     1.002625    1.2934174    2.7973178 
   16300   0.99996594    1.3024833    2.8023951 
   16400    1.0045082      1.29655    2.8032751 
   16500   0.99972103    1.3040162    2.8035607 
   16600   0.99714236    1.3078774     2.803554 
   16700    1.0013667    1.2979884    2.8000013 
   16800    0.9954401    1.2961138     2.789237 
   16900   0.99825855    1.2932283    2.7905791 
   17000    1.0014197    1.2891617    2.7912541 
   17100    1.0033584    1.2972494    2.8022499 
   17200      1.00496    1.2974676    2.8048704 
   17300    1.0004769     1.299517    2.8001953 
   17400   0.99680167    1.3047816    2.7999471 
   17500   0.99709211    1.2999613    2.7955625 
   17600    1.0023978     1.293335    2.7968945 
   17700    1.0026804    1.2945643    2.7985477 
   17800    1.0022455    1.3042013    2.8075324 
   17900    1.0062366    1.3018734    2.8111909 
   18000    1.0016561    1.3106968    2.8131439 
   18100    1.0044504    1.2968137    2.8034521 
   18200   0.99514467    1.3047377    2.7974178 
   18300   0.99784535    1.3019517    2.7986827 
   18400   0.99859384    1.2969034    2.7947571 
   18500    1.0004772    1.3001039    2.8007825 
   18600    1.0046729    1.2975906    2.8045627 
   18700    1.0044382    1.3022563    2.8088763 
   18800    1.0064284    1.3081681    2.8177733 
   18900    1.0085086    1.3102809    2.8230064 
   19000    1.0065103    1.3016264    2.8113545 
   19100    1.0006692    1.3068481    2.8078148 
   19200   0.99497564    1.3082687    2.8006952 
   19300   0.99594459    1.3062463    2.8001263 
   19400    1.0039802    1.3043506    2.8102837 
   19500    1.0002773    1.3078983     2.808277 
   19600      1.00474    1.3092287    2.8163015 
   19700    1.0048106    1.3089889    2.8161674 
   19800    1.0060711    1.3032676    2.8123369 
   19900    1.0014399     1.298394    2.8005167 
   20000   0.99864463    1.3018967    2.7998266 
   20100   0.99779005     1.301006     2.797654 
   20200    1.0020778    1.3008826    2.8039621 
   20300   0.99949804    1.3104936    2.8097036 
   20400    1.0020911    1.3063436    2.8094431 
   20500    1.0053967    1.3007882     2.808846 
   20600   0.99992831    1.2959083    2.7957637 
   20700   0.99303308    1.3014686    2.7909814 
   20800   0.99221468    1.3005941    2.7888793 
   20900   0.99724193    1.3038849    2.7997109 
   21000   0.99982412    1.3043592    2.8040583 
   21100    1.0017799    1.3035871    2.8062199 
   21200    1.0040501    1.2994562    2.8054941 
   21300    1.0005732    1.2936666    2.7944893 
   21400   0.99611384    1.3015628    2.7956966 
   21500   0.99894222    1.2960903    2.7944666 
   21600   0.99469033     1.305584    2.7975826 
   21700    1.0020986    1.2987418    2.8018526 
   21800   0.99556388      1.30913    2.8024389 
   21900    1.0045855    1.3036974    2.8105384 
   22000    1.0000081    1.3081667    2.8081417 
   22100    1.0000011     1.310158    2.8101225 
   22200   0.99865378    1.3117139    2.8096575 
   22300   0.99967022    1.3072117      2.80668 
   22400    1.0039662    1.3057834    2.8116954 
   22500    1.0015499    1.3014568    2.8037446 
   22600    1.0007572    1.3045497    2.8056484 
   22700   0.99157182    1.3083045    2.7956255 
   22800   0.99647978    1.3002987    2.7949814 
   22900   0.99480846    1.3007987    2.7929745 
   23000   0.99351819    1.2972828    2.7875232 
   23100   0.99674446    1.3114677    2.8065474 
   23200     1.002349    1.3004372    2.8039236 
   23300    1.0079823    1.2977234    2.8096595 
   23400   0.99816404    1.3059758    2.8031848 
   23500   0.99348919    1.3052528    2.7954497 
   23600   0.99997719     1.302581    2.8025097 
   23700   0.99834334    1.3011685    2.7986465 
   23800    1.0075837    1.3003484    2.8116866 
   23900    1.0072458     1.303989    2.8148204 
   24000     1.006999     1.299979    2.8104401 
   24100    1.0008242    1.3014637    2.8026629 
   24200   0.99808656    1.3005875    2.7976803 
   24300   0.99752361    1.2968123    2.7930607 
   24400    1.0019562    1.2946863    2.7975834 
   24500     1.003884    1.2941598    2.7999485 
   24600    1.0019849    1.2931269    2.7960671 
   24700    1.0059809    1.3012732    2.8102073 
   24800   0.99930811    1.2999567    2.7988818 
   24900    1.0048324    1.2945888    2.8018002 
   25000   0.99812408    1.2952606    2.7924097 
   25100   0.99194698    1.2955297    2.7834134 
   25200    1.0024941    1.2869129    2.7906168 
   25300   0.99592164    1.2899235     2.783769 
   25400    1.0038893    1.2899928    2.7957894 
   25500    1.0038639    1.2946936    2.8004522 
   25600    1.0089929    1.2897227    2.8031747 
   25700   0.99916249    1.2969154    2.7956221 
   25800    1.0032646    1.2851535    2.7900132 
   25900   0.99719224     1.293259    2.7890103 
   26000   0.99724475    1.2923393    2.7881694 
   26100   0.99787039    1.2952363    2.7920049 
   26200   0.99198456    1.3016622    2.7896023 
   26300    1.0018958    1.2910296    2.7938361 
   26400    1.0073351    1.2927001    2.8036654 
   26500     1.007637    1.2943195    2.8057376 
   26600    1.0043568    1.2957283    2.8022263 
   26700   0.99918498    1.2903654    2.7891058 
   26800    1.0043914    1.2800613    2.7866112 
   26900   0.99834707    1.2895445    2.7870281 
   27000   0.99713005     1.287999    2.7836571 
   27100      1.00113    1.2879372     2.789595 
   27200   0.99842703    1.2925573    2.7901608 
   27300     1.001586    1.2963332    2.7986751 
   27400    1.0024901    1.2998572    2.8035551 
   27500    1.0060677    1.2940553    2.8031196 
   27600    1.0035868    1.2895649    2.7949078 
   27700    1.0022839    1.2830862    2.7864749 
   27800   0.99925765    1.2865829    2.7854323 
   27900   0.99548297    1.2933449    2.7865325 
   28000   0.99699408    1.2960025    2.7914566 
   28100    1.0019307    1.2935261     2.796385 
   28200    1.0053434    1.2981889    2.8061667 
   28300   0.99824763    1.3024434    2.7997778 
   28400    1.0044651    1.2971157     2.803776 
   28500    1.0028816    1.2910208    2.7953061 
   28600   0.99631408    1.2882203    2.7826545 
   28700   0.99635076    1.2912604    2.7857496 
   28800   0.98844323     1.299374    2.7820022 
   28900    1.0018898    1.2918068    2.7946043 
   29000    1.0014209    1.2928061    2.7949003 
   29100    1.0031809    1.2962393    2.8009736 
   29200    1.0029138    1.2918807    2.7962141 
   29300    1.0011763    1.2911001    2.7928275 
   29400   0.99859284     1.288059    2.7859112 
   29500   0.99278683    1.2879883    2.7771318 
   29600      0.99489     1.290049    2.7823471 
   29700   0.99614029    1.2926816    2.7868551 
   29800    1.0000371      1.28859    2.7886085 
   29900     1.001601    1.2893593    2.7917237 
   30000   0.99861161    1.2936146     2.791495 
   30100    0.9994417    1.2907556    2.7898811 
   30200    1.0008126    1.2989423     2.800124 
   30300   0.99741765    1.3028151    2.7989046 
   30400    1.0062352    1.3045948    2.8139103 
   30500    1.0042517     1.306646    2.8129862 
   30600   0.99977251    1.3037818    2.8034035 
   30700    1.0039888    1.2989728    2.8049187 
   30800   0.99417196    1.3020669     2.793288 
   30900    1.0034793    1.2923281    2.7975098 
   31000   0.99568448    1.3001068    2.7935966 
   31100    1.0016275    1.2964247    2.7988288 
   31200   0.99936923    1.2995124    2.7985292 
   31300    1.0062591    1.2977874    2.8071387 
   31400    1.0092875    1.2994091     2.813303 
   31500    1.0031131    1.3066004    2.8112328 
   31600    1.0055467    1.3059093     2.814192 
   31700   0.99911619    1.2981032    2.7967404 
   31800    1.0002318    1.2979243     2.798235 
   31900   0.99719435    1.2986517    2.7944062 
   32000   0.99943553    1.2970367     2.796153 
   32100    1.0059397    1.2959461    2.8048183 
   32200    1.0033901    1.2997273    2.8047753 
   32300    1.0065113    1.2955236    2.8052533 
   32400   0.99902903    1.3007199    2.7992264 
   32500    1.0016162    1.2931679    2.7955551 
   32600   0.99637243    1.2906016    2.7851233 
   32700   0.99567896    1.3022792    2.7957607 
   32800   0.99657371    1.2986923    2.7935159 
   32900    1.0037187    1.2949909    2.8005318 
   33000    1.0059173    1.3020619    2.8109004 
   33100   0.99939539    1.2997253    2.7987814 
   33200    1.0018868    1.3028693    2.8056625 
   33300   0.99628249    1.2979449    2.7923317 
   33400   0.99600027    1.2846711    2.7786346 
   33500   0.99411902    1.2937823     2.784924 
   33600   0.99611323    1.2957307    2.7898636 
   33700    1.0007626    1.2947299    2.7958366 
   33800    1.0005527    1.3031328    2.8039248 
   33900   0.99915243    1.3051973    2.8038889 
   34000    1.0009979     1.303958    2.8054178 
   34100    1.0022161    1.3079015    2.8111884 
   34200   0.99775123    1.3057699    2.8023598 
   34300   0.99537547    1.3067229    2.7997492 
   34400    0.9930299    1.3073184    2.7968265 
   34500   0.99224621      1.30607    2.7944025 
   34600    1.0021404    1.3036923    2.8068658 
   34700    1.0022035    1.3080519    2.8113201 
   34800    1.0041552    1.3037735    2.8099692 
   34900    1.0009133    1.3068771    2.8082099 
   35000    1.0030469    1.3042198    2.8087529 
   35100   0.99476534     1.306336    2.7984471 
   35200   0.99669969    1.3119856    2.8069982 
   35300    1.0028317    1.2983288    2.8025392 
   35400   0.99423928    1.3077712    2.7990933 
   35500    1.0004191    1.3064012    2.8069927 
   35600    1.0051777    1.2955295    2.8032588 
   35700    1.0059564    1.3026072    2.8115045 
   35800   0.99957996    1.3069799    2.8063128 
   35900    1.0023677    1.2996554    2.8031698 
   36000   0.99722808    1.2973295    2.7931346 
   36100   0.99514706    1.3002838    2.7929675 
   36200   0.99631851    1.2970132     2.791454 
   36300   0.99564029    1.3018439    2.7952674 
   36400    1.0046763    1.3040642    2.8110413 
   36500    1.0034098    1.2989746    2.8040521 
   36600    1.0030034     1.304828    2.8092959 
   36700    1.0011208      1.29902     2.800664 
   36800    1.0000936    1.2972876    2.7973908 
   36900   0.99749866     1.302732     2.798943 
   37000   0.99889131    1.2971096    2.7954095 
   37100    1.0024701    1.3035316    2.8071996 
   37200    1.0031025    1.3074382    2.8120548 
   37300    1.0088397    1.3000489     2.813271 
   37400    1.0038066     1.295025    2.8006976 
   37500   0.99855562    1.3028515    2.8006479 
   37600     1.001051    1.2952582    2.7967976 
   37700   0.99960957     1.297973    2.7973503 
   37800    1.0005753    1.2976317    2.7984575 
   37900   0.99778634    1.2947609    2.7914034 
   38000   0.99920493    1.2992095    2.7979798 
   38100    1.0020949    1.2953615    2.7984667 
   38200   0.99906087    1.3062938     2.804848 
   38300    1.0005102    1.3059508     2.806679 
   38400     1.004613    1.2985992    2.8054814 
   38500    1.0011418    1.2932063    2.7948819 
   38600   0.99688087    1.2941091    2.7893934 
   38700   0.99913529    1.2902324    2.7888983 
   38800   0.99940222    1.2934217     2.792488 
   38900    1.0064868    1.2898603    2.7995531 
   39000    1.0048649    1.2907666    2.7980267 
   39100    1.0014946    1.3000727    2.8022775 
   39200    1.0069191    1.2946245    2.8049658 
   39300   0.99290001    1.3025452    2.7918584 
   39400    1.0010763    1.2944616    2.7960389 
   39500   0.99930167    1.2899971    2.7889126 
   39600   0.99244137    1.2937679    2.7823932 
   39700     1.001452    1.2954335    2.7975744 
   39800   0.99669189     1.297846    2.7928469 
   39900    1.0054953    1.2987272    2.8069328 
   40000    1.0072624    1.2966892    2.8075454 
   40100   0.99943401    1.2988523    2.7979662 
   40200    1.0038217    1.3001592    2.8058545 
   40300   0.99829989    1.2977457    2.7951585 
   40400     1.003208    1.2973432     2.802118 
   40500    1.0020068    1.2950524    2.7980254 
   40600     0.999924    1.2975922    2.7974412 
   40700    1.0033934    1.2954805    2.8005335 
   40800   0.99390852    1.3035005    2.7943264 
   40900    1.0021374    1.3012722    2.8044412 
   41000    1.0052818    1.3002473    2.8081328 
   41100    1.0058633    1.3028338    2.8115914 
   41200    1.0099732    1.2945328    2.8094551 
   41300   0.99844391    1.2970519    2.7946807 
   41400   0.99854732    1.2968118    2.7945958 
   41500    1.0026926    1.2871884    2.7911901 
   41600   0.99862268    1.2892659    2.7871629 
   41700    1.0036104    1.2887479    2.7941263 
   41800   0.99789619      1.29254    2.7893473 
   41900    1.0037575     1.292526    2.7981251 
   42000    1.0004484    1.3016727    2.8023083 
   42100   0.99985778    1.3017273    2.8014769 
   42200    1.0043909    1.3014718    2.8080208 
   42300    1.0004284    1.2955792    2.7961846 
   42400   0.99951125    1.2893379    2.7885677 
   42500     1.001979    1.2864827     2.789414 
   42600   0.99055252    1.3007669    2.7865589 
   42700    1.0015843    1.2917109    2.7940502 
   42800    1.0048268     1.297459     2.804662 
   42900    1.0000849    1.3010282    2.8011184 
   43000    1.0043581    1.2965552     2.803055 
   43100   0.99995186    1.3012589    2.8011496 
   43200    1.0001107     1.293242    2.7933709 
   43300   0.99904766    1.2991014    2.7976359 
   43400    0.9964555    1.2994731    2.7941194 
   43500    1.0011116    1.2922967    2.7939271 
   43600    1.0016677    1.2997207    2.8021852 
   43700    1.0072117    1.2935774    2.8043576 
   43800    1.0042159    1.2973775    2.8036642 
   43900    1.0008476    1.2975363    2.7987705 
   44000    0.9982658    1.2938277    2.7911894 
   44100   0.99737317    1.2926966    2.7887194 
   44200   0.99477145    1.2970503    2.7891706 
   44300   0.99620081    1.3020987     2.796363 
   44400    1.0058799    1.2960447    2.8048272 
   44500    1.0048322    1.2998498    2.8070608 
   44600    1.0008052    1.3044582    2.8056288 
   44700    1.0007976    1.2966895    2.7978489 
   44800   0.99756162    1.2977805    2.7940859 
   44900   0.99629684    1.2965597     2.790968 
   45000   0.99589749    1.2954882    2.7892975 
   45100    1.0016898    1.2968883    2.7993859 
   45200    1.0019427    1.3002704    2.8031473 
   45300    1.0056423    1.3068996    2.8153257 
   45400    1.0078447    1.3085636    2.8202932 
   45500   0.99961715    1.3095739    2.8089626 
   45600    1.0021851    1.3066008    2.8098413 
   45700   0.99794299    1.3040642    2.8009416 
   45800    1.0013672    1.2928491    2.7948628 
   45900    1.0023195    1.2946369     2.798079 
   46000   0.99466746    1.3028801    2.7948444 
   46100    1.0001161    1.3029568    2.8030939 
   46200    1.0054971    1.3066806     2.814889 
   46300     1.006059    1.3026681    2.8117193 
   46400    1.0005343    1.3087112    2.8094755 
   46500    1.0030342    1.3035537    2.8080679 
   46600    1.0001927    1.2966152    2.7968671 
   46700   0.99987337    1.3035899    2.8033629 
   46800   0.99127682     1.311188    2.7980664 
   46900    1.0065767    1.2960434     2.805871 
   47000    1.0068899    1.3119009    2.8221984 
   47100    1.0061793    1.3065433     2.815775 
   47200    1.0080671    1.3056719    2.8177352 
   47300   0.99639889    1.3102074    2.8047688 
   47400    1.0001452    1.3025777    2.8027584 
   47500    1.0008271    1.3031837    2.8043873 
   47600   0.99581509    1.3019813    2.7956671 
   47700    1.0057636    1.2975006    2.8061087 
   47800    1.0041356    1.2964795    2.8026456 
   47900    1.0040306    1.3054897    2.8114983 
   48000    1.0054167    1.3074541    2.8155418 
   48100    1.0014428    1.3092367    2.8113638 
   48200    1.0021117     1.304486    2.8076165 
   48300   0.99305101    1.3048229    2.7943625 
   48400    1.0001088    1.2963007    2.7964268 
   48500   0.99938307    1.2967413    2.7957788 
   48600   0.99687966    1.3019128    2.7971954 
   48700    1.0026352    1.3031967    2.8071124 
   48800    1.0036216    1.3042201    2.8096152 
   48900    1.0056488    1.3041654    2.8126013 
   49000    1.0080915    1.3054179    2.8175178 
   49100    1.0022053     1.297651    2.8009219 
   49200    1.0012162    1.2955992    2.7973863 
   49300    0.9999317     1.294879    2.7947395 
   49400   0.99942206     1.288951     2.788047 
   49500    1.0010354    1.2886579    2.7901739 
   49600   0.99336636    1.2948806    2.7848933 
   49700   0.99415381    1.2938778    2.7850717 
   49800    1.0000154    1.2915201    2.7915062 
   49900    1.0061365    1.2922489    2.8014164 
   50000    1.0030453    1.2963725    2.8009032 
   50100    1.0011088    1.2946828    2.7963089 
   50200   0.99997114    1.2946544     2.794574 
   50300   0.99835501    1.2894055     2.786901 
   50400   0.99939975    1.2956119    2.7946745 
   50500    1.0003505     1.293699    2.7941876 
   50600   0.99504228     1.297412    2.7899385 
   50700   0.99871459    1.3018387    2.7998736 
   50800    1.0030601    1.2981764    2.8027294 
   50900   0.99935427    1.3020179    2.8010122 
   51000     1.003505    1.3011421    2.8063624 
   51100    1.0043437    1.2949907     2.801469 
   51200   0.99794349     1.293222    2.7901002 
   51300   0.99903255      1.29445    2.7929618 
   51400   0.98950087    1.2963658    2.7805804 
   51500    1.0018371    1.2990842    2.8018027 
   51600   0.99999571    1.3011402    2.8010967 
   51700   0.99922404    1.2988457    2.7976447 
   51800    1.0035536    1.3083196    2.8136127 
   51900   0.99626821    1.3000249    2.7943902 
   52000   0.99995316    1.3030919    2.8029845 
   52100   0.99440996    1.3007964    2.7923744 
   52200   0.98785994    1.2994647     2.781218 
   52300   0.99969566    1.2955301    2.7950365 
   52400    0.9987815    1.3013186    2.7994538 
   52500    1.0004493    1.2995382     2.800175 
   52600    1.0040669    1.3015198    2.8075829 
   52700   0.99732766    1.3048562    2.8008107 
   52800   0.99826937    1.3029276    2.8002947 
   52900    1.0034062    1.2957192    2.8007914 
   53000   0.99137102    1.2956968    2.7827166 
   53100   0.99282033    1.2971055    2.7862992 
   53200   0.99269573    1.2963141    2.7853209 
   53300    1.0023472    1.2909004     2.794384 
   53400    1.0021068    1.2940775    2.7972006 
   53500    1.0011062    1.2949368     2.796559 
   53600    1.0037862    1.2952247    2.8008669 
   53700   0.99770344    1.2970039     2.793522 
   53800   0.99995331    1.3001369    2.8000298 
   53900   0.99464509    1.3012042     2.793135 
   54000   0.99707663     1.293086     2.788664 
   54100    0.9982401     1.290394    2.7877171 
   54200   0.99502664    1.2946126    2.7871157 
   54300   0.99685923    1.2980701    2.7933219 
   54400    1.0055127     1.295517    2.8037487 
   54500   0.99876451    1.3054467    2.8035564 
   54600   0.99889025      1.30486    2.8031583 
   54700    1.0030443    1.3003346    2.8048638 
   54800    1.0010018    1.2953934     2.796859 
   54900   0.99418956    1.2983364    2.7895839 
   55000   0.99589742    1.2876801    2.7814893 
   55100   0.99168929    1.2960358     2.783533 
   55200   0.99542802    1.2957524    2.7888575 
   55300    1.0036285    1.2914668    2.7968723 
   55400   0.99529067    1.3024994    2.7953985 
   55500    1.0005611    1.3017307    2.8025352 
   55600    1.0013575    1.3037848    2.8057838 
   55700    1.0013341    1.3020539    2.8040179 
   55800     1.007851    1.3052414    2.8169806 
   55900     1.004151    1.3075551    2.8137443 
   56000    1.0111543     1.305288    2.8219819 
   56100    1.0050947    1.3042866    2.8118914 
   56200   0.99985266    1.3018116    2.8015535 
   56300   0.99519414     1.309628    2.8023823 
   56400    1.0029198    1.2949421    2.7992845 
   56500   0.99864748    1.3007583    2.7986925 
   56600   0.99816325    1.3045442     2.801752 
   56700    1.0017577    1.3052882    2.8078876 
   56800    1.0066874    1.3014934    2.8114871 
   56900    1.0061858    1.3081117    2.8173531 
   57000   0.99994277    1.3046253    2.8045023 
   57100       1.0018    1.3008951     2.803558 
   57200   0.99707672    1.3026326    2.7982107 
   57300   0.99830553    1.2978517     2.795273 
   57400    1.0046703    1.2942459     2.801214 
   57500   0.99987019    1.3016525    2.8014207 
   57600     1.003788    1.2976892    2.8033339 
   57700    1.0034646    1.3009212    2.8060809 
   57800    1.0031352     1.301652    2.8063176 
   57900   0.99257972    1.3019101    2.7907428 
   58000    1.0002634    1.2938887    2.7942467 
   58100   0.99703022    1.2936618    2.7891702 
   58200   0.99721857    1.2967132    2.7925041 
   58300    1.0034913    1.2995053    2.8047051 
   58400   0.99939251    1.3053779    2.8044296 
   58500    1.0073639    1.2996918    2.8107002 
   58600   0.99972023    1.3026921    2.8022354 
   58700   0.99993278    1.2991508    2.7990129 
   58800    1.0007929    1.2966353    2.7977875 
   58900    1.0001056    1.2972974    2.7974187 
   59000    1.0013622    1.2973449     2.799351 
   59100    1.0053034    1.2958012     2.803719 
   59200    1.0046123    1.3072959     2.814177 
   59300    1.0080051    1.3021618    2.8141322 
   59400    1.0021936    1.3036732    2.8069265 
   59500   0.99711277    1.3007904    2.7964226 
   59600    1.0011809    1.2953686    2.7971028 
   59700   0.99694879     1.298525    2.7939113 
   59800    1.0072397    1.2885674    2.7993897 
   59900    1.0019536    1.2941113    2.7970046 
   60000    1.0013436     1.292099    2.7940773 
   60100   0.99520602    1.3004493    2.7932214 
   60200   0.99203789    1.2923247    2.7803448 
   60300   0.99496052    1.2906886    2.7830925 
   60400   0.99817137    1.2935205    2.7907406 
   60500   0.99954787    1.2957659    2.7950507 
   60600     1.001389    1.2979007    2.7999471 
   60700    1.0027816    1.2937414    2.7978767 
   60800   0.99905065    1.2913815    2.7899204 
   60900    1.0002597     1.292765    2.7931175 
   61000   0.99895468    1.2889373    2.7873323 
   61100   0.99764205     1.291347    2.7877731 
   61200    1.0066093    1.2920018    2.8018785 
   61300    1.0065462    1.2910439    2.8008258 
   61400    1.0093387    1.2901574     2.804128 
   61500    1.0046525    1.2918199    2.7987614 
   61600   0.99690986    1.2889393    2.7842672 
   61700   0.99674205     1.297631    2.7927072 
   61800   0.99658091    1.2963027    2.7911372 
   61900   0.99622998    1.2970434    2.7913514 
   62000    1.0023415    1.3045947    2.8080699 
   62100   0.99722137    1.3036871    2.7994822 
   62200    1.0051829    1.2951572    2.8028944 
   62300    1.0055229    1.2936919    2.8019389 
   62400   0.99734785    1.2927247    2.7887095 
   62500   0.99958916    1.2970837    2.7964304 
   62600   0.99622892    1.2951504    2.7894568 
   62700   0.99737481    1.2950859    2.7911112 
   62800     1.006097    1.2961013    2.8052095 
   62900    1.0048962    1.2988963    2.8062033 
   63000    1.0066721    1.3012874    2.8112583 
   63100    1.0059075    1.2969974    2.8058213 
   63200    1.0011066    1.2979732     2.799596 
   63300    1.0019335    1.2981454    2.8010085 
   63400   0.99815055    1.2974169    2.7946057 
   63500   0.99892566    1.2957641    2.7941155 
   63600   0.99862868    1.2964991    2.7944051 
   63700   0.99589273    1.2987901    2.7925923 
   63800    1.0033981    1.2966995    2.8017595 
   63900    1.0041592    1.2994226    2.8056242 
   64000    1.0043688    1.2990871    2.8056031 
   64100    1.0021586    1.3005778    2.8037785 
   64200   0.99549131    1.2991711    2.7923712 
   64300   0.99422892    1.3035163    2.7948229 
   64400    0.9977637    1.2950958    2.7917044 
   64500   0.99534653    1.3036354    2.7966183 
   64600    1.0059162    1.3037842    2.8126212 
   64700     1.006193    1.3012306    2.8104829 
   64800    1.0052357    1.3073962    2.8152125 
   64900     1.002124    1.3032965    2.8064454 
   65000   0.99508361    1.3039515      2.79654 
   65100    1.0030473    1.2966452    2.8011789 
   65200   0.99963844    1.2907469    2.7901675 
   65300   0.99665538     1.295194    2.7901401 
   65400   0.99781971    1.3016427    2.7983352 
   65500    1.0017695    1.2938028    2.7964199 
   65600    1.0073758    1.2972242    2.8082506 
   65700    1.0128329    1.2930075    2.8122194 
   65800    1.0019861    1.2940032    2.7969452 
   65900    1.0014741    1.2989725    2.8011465 
   66000   0.99312285    1.3034726      2.79312 
   66100   0.99916302    1.2931805     2.791888 
   66200    1.0001418    1.3046385    2.8048141 
   66300    1.0000075    1.2948765    2.7948507 
   66400   0.99874176    1.3049105    2.8029861 
   66500   0.99917762    1.3079178    2.8066472 
   66600   0.99952839    1.2981573    2.7974128 
   66700    1.0044883    1.3059649    2.8126601 
   66800    1.0006889    1.3110399    2.8120361 
   66900    1.0056938    1.2981675    2.8066709 
   67000    1.0008501    1.3072483    2.8084864 
   67100   0.99514816    1.3042067     2.796892 
   67200   0.99839259     1.298813    2.7963648 
   67300    1.0033945    1.2995017    2.8045563 
   67400     1.002654     1.305472    2.8094159 
   67500    1.0050504    1.3087926    2.8163309 
   67600    1.0020088    1.3194455    2.8224215 
   67700    1.0014978    1.3116864     2.813896 
   67800   0.99809532    1.3106024    2.8077084 
   67900   0.99728051    1.3054355    2.8013193 
   68000   0.99105633    1.3055454    2.7920932 
   68100   0.99880489    1.3122167     2.810387 
   68200   0.99985685    1.3135296    2.8132778 
   68300    1.0054513    1.3069498    2.8150895 
   68400    1.0056277    1.3133062    2.8217105 
   68500    0.9954383     1.315483    2.8086035 
   68600    1.0041411    1.2985214    2.8046959 
   68700   0.99593773    1.3105602    2.8044299 
   68800   0.99428628    1.3106378    2.8020303 
   68900     1.004878    1.3024035    2.8096833 
   69000   0.99961459    1.3115135    2.8108983 
   69100    1.0006123    1.3069289    2.8078103 
   69200    1.0003734     1.308199     2.808722 
   69300   0.99712932    1.3138933    2.8095503 
   69400    1.0038749    1.3017281    2.8075033 
   69500    1.0013207    1.3028866    2.8048305 
   69600    0.9997986    1.3094963    2.8091571 
   69700   0.99479179    1.3071806    2.7993314 
   69800    1.0012239    1.3068718    2.8086704 
   69900   0.99803723      1.31452    2.8115388 
   70000    1.0059324    1.3027862    2.8116475 
   70100     1.005887    1.3165093    2.8253025 
   70200     1.000815    1.3078525    2.8090379 
   70300    1.0006077    1.3027686     2.803643 
   70400   0.99318017     1.313811    2.8035444 
   70500    0.9991011    1.3005296    2.7991442 
   70600   0.99936699    1.3049115    2.8039249 
   70700   0.99794003    1.3104952    2.8073682 
   70800    1.0076591    1.3006411    2.8120923 
   70900    1.0000353    1.3131241      2.81314 
   71000    1.0094352    1.3015205    2.8156359 
   71100   0.99995684    1.3013887    2.8012869 
   71200   0.99895613    1.2999982    2.7983954 
   71300   0.99600023    1.3051885    2.7991519 
   71400   0.99753479    1.2996558     2.795921 
   71500    1.0036463    1.3050485    2.8104809 
   71600    1.0029778    1.3063074    2.8107369 
   71700    1.0039911    1.3012253    2.8071748 
   71800   0.99917161    1.3047626     2.803483 
   71900   0.99589541    1.2940583    2.7878645 
   72000   0.99715519    1.2943957    2.7900915 
   72100   0.99399066    1.3056994    2.7966485 
   72200    0.9999265    1.2993637    2.7992164 
   72300    1.0048794    1.2975572     2.804839 
   72400    1.0095112     1.297125    2.8113543 
   72500     1.005857    1.2905017    2.7992499 
   72600    1.0002092    1.2968778    2.7971545 
   72700   0.99801132    1.2958033    2.7927833 
   72800   0.99135935    1.2941399    2.7811422 
   72900     1.000276    1.2969248    2.7973017 
   73000   0.99890658    1.2938487    2.7921716 
   73100    1.0002089    1.2980775    2.7983538 
   73200    1.0039928    1.3009074    2.8068595 
   73300    1.0024746    1.2972664    2.8009412 
   73400    1.0024065    1.2955829    2.7991554 
   73500   0.99769625    1.2952528    2.7917602 
   73600    0.9908291    1.2964551     2.782662 
   73700   0.99008779    1.2893412    2.7744362 
   73800   0.99580505    1.2953778    2.7890485 
   73900    1.0019966    1.2921756    2.7951333 
   74000   0.99744115    1.3002067    2.7963314 
   74100    1.0023893    1.2989926    2.8025394 
   74200    1.0006796    1.2950802    2.7960625 
   74300    1.0012535    1.3011858    2.8030289 
   74400     1.000462     1.299164    2.7998199 
   74500    1.0000619    1.2962369    2.7962926 
   74600   0.99615989    1.2965875    2.7907904 
   74700   0.99493147    1.2969186    2.7892789 
   74800   0.99700633    1.2908365    2.7863091 
   74900   0.99787018    1.2994664    2.7962347 
   75000    1.0053752    1.3000886    2.8081141 
   75100   0.99999978    1.3010107    2.8009733 
   75200    1.0051025    1.3029567    2.8105732 
   75300   0.99996568    1.2929663    2.7928778 
   75400    1.0000873    1.2939243    2.7940182 
   75500   0.99827487    1.2971709    2.7945462 
   75600    0.9969009    1.2918019    2.7871162 
   75700    1.0009977    1.3004292    2.8018887 
   75800    1.0022489    1.2942468     2.797583 
   75900    1.0038119    1.2998285    2.8055092 
   76000    1.0045798    1.3021411    2.8089736 
   76100    1.0063911    1.3020032    2.8115524 
   76200    1.0059207    1.2912975    2.8001413 
   76300   0.99976825    1.2993375    2.7989528 
   76400   0.99537686    1.2960344    2.7890627 
   76500   0.99410851    1.2954606    2.7865865 
   76600     1.004269    1.2928028    2.7991691 
   76700    0.9968175    1.2976676    2.7928568 
   76800    1.0009436    1.3037646    2.8051429 
   76900    1.0043714    1.2974293    2.8039491 
   77000    0.9990847    1.2943756    2.7929656 
   77100   0.99318692    1.2962898    2.7860334 
   77200   0.99231636    1.2964286    2.7848663 
   77300    1.0001623     1.288205    2.7884113 
   77400   0.99796431    1.2949147    2.7918242 
   77500    1.0059495    1.2920258    2.8009127 
   77600    1.0032378    1.2901212    2.7949407 
   77700    1.0004552    1.2966688    2.7973144 
   77800   0.99420106    1.2902251    2.7814898 
   77900   0.99184634    1.2905452    2.7782779 
   78000   0.99516408    1.2937758     2.786485 
   78100   0.99824359    1.2915759    2.7889042 
   78200   0.99814852    1.2961361    2.7933219 
   78300   0.99840218    1.3003291    2.7978953 
   78400    1.0044782    1.2906666    2.7973466 
   78500    0.9952755    1.3015312    2.7944075 
   78600    1.0001698    1.2938152    2.7940329 
   78700   0.99567156     1.284776    2.7782464 
   78800   0.99495698    1.2868727    2.7792713 
   78900   0.99738472    1.2875207    2.7835608 
   79000   0.99872639    1.2825205    2.7805731 
   79100    1.0022664    1.2927408    2.7961033 
   79200   0.99878846    1.2942043    2.7923499 
   79300    1.0016087    1.2908089    2.7931849 
   79400    1.0050693    1.2870437    2.7946104 
   79500    1.0024697    1.2833968    2.7870641 
   79600    1.0001942    1.2886799     2.788934 
   79700   0.99573156    1.2934738    2.7870342 
   79800    0.9998265    1.2837394    2.7834421 
   79900   0.99673289    1.2857638    2.7808262 
   80000   0.99222196     1.282574    2.7708702 
   80100   0.99281661    1.2795539     2.768742 
   80200   0.99604498    1.2824448    2.7764753 
   80300    1.0012239    1.2825568    2.7843555 
   80400    1.0039306    1.2800195    2.7858782 
   80500    1.0006757    1.2887607    2.7897372 
   80600    1.0024941    1.2810969     2.784801 
   80700    1.0010203    1.2823567    2.7838501 
   80800   0.99991083    1.2836496    2.7834788 
   80900   0.98635131    1.2878152    2.7673056 
   81000   0.99508687    1.2826797    2.7752731 
   81100   0.99254527    1.2948096    2.7835907 
   81200      1.00101    1.2865302     2.788008 
   81300    1.0065592    1.2906959    2.8004974 
   81400   0.99699876    1.2969432    2.7924044 
   81500    1.0022037    1.2919298    2.7951982 
   81600    1.0005559    1.2996576    2.8004543 
   81700   0.99824553     1.296683    2.7940143 
   81800    1.0037128    1.2963839    2.8019159 
   81900    1.0025837     1.301161    2.8049994 
   82000   0.99984568    1.3051935    2.8049249 
   82100    1.0054157    1.2990785    2.8071647 
   82200   0.99441323    1.3061616    2.7977446 
   82300    1.0018987    1.2902732    2.7930841 
   82400   0.99325968    1.2976443     2.787497 
   82500   0.99853884     1.297236    2.7950072 
   82600   0.99906252     1.298982    2.7975387 
   82700    1.0026771    1.2994961    2.8034746 
   82800    1.0022267    1.3031868    2.8064896 
   82900     1.000455    1.2980995    2.7987449 
   83000    1.0033595    1.2976649     2.802667 
   83100    0.9951586    1.2998973    2.7925983 
   83200   0.99420022     1.298221    2.7894844 
   83300   0.99740677     1.297971    2.7940442 
   83400    1.0024516    1.2956658    2.7993061 
   83500    1.0047226    1.3004748    2.8075215 
   83600    1.0018584     1.310917    2.8136675 
   83700   0.99674977    1.3084217    2.8035094 
   83800    0.9982692    1.3044401    2.8018069 
   83900    0.9963499    1.3054228    2.7999107 
   84000   0.99652127    1.2940892    2.7888341 
   84100   0.99962175    1.2978835    2.7972791 
   84200    1.0004432    1.3014492     2.802077 
   84300    1.0075384      1.30178    2.8130503 
   84400    1.0043476    1.3081583    2.8146425 
   84500    1.0018137    1.3009805    2.8036639 
   84600    1.0029521    1.2952873    2.7996782 
   84700   0.99443659    1.3033611    2.7949791 
   84800   0.99692364    1.2982102    2.7935587 
   84900   0.99660506    1.2984891    2.7933597 
   85000    0.9989617    1.2989517    2.7973572 
   85100    1.0050936    1.2958588    2.8034619 
   85200    1.0050598    1.3061206     2.813673 
   85300    1.0065077    1.3033887    2.8131129 
   85400    1.0064375    1.2940879    2.8037068 
   85500   0.99965001    1.3028361     2.802274 
   85600    1.0013312    1.2933212     2.795281 
   85700    1.0027036    1.2910441    2.7950623 
   85800   0.99918187    1.2934415    2.7921772 
   85900    0.9969817    1.2951908    2.7906264 
   86000   0.99721949    1.3008975    2.7966898 
   86100    1.0036965    1.3020779    2.8075855 
   86200    1.0065348    1.2957774    2.8055423 
   86300    1.0030874    1.2985744    2.8031683 
   86400    1.0014672    1.2988222    2.8009859 
   86500   0.99755712    1.2934799    2.7897786 
   86600    1.0028575    1.2911771    2.7954261 
   86700   0.99804468    1.2968892    2.7939192 
   86800    1.0010006    1.2933691    2.7948329 
   86900     1.003376    1.2953455    2.8003724 
   87000    1.0002623    1.2979023    2.7982587 
   87100     1.003462    1.2975423     2.802698 
   87200   0.99967925    1.2973238    2.7968056 
   87300    1.0008941      1.29544     2.796744 
   87400   0.99759646    1.2926058    2.7889635 
   87500     1.002302     1.287311    2.7907268 
   87600   0.99871522    1.2930374    2.7910732 
   87700   0.99648532    1.3012028    2.7958938 
   87800    1.0058793    1.3005819    2.8093635 
   87900    1.0021133    1.3008921    2.8040249 
   88000    1.0029537    1.3002395    2.8046329 
   88100   0.99762121    1.3007541     2.797149 
   88200   0.99525415    1.2979858    2.7908302 
   88300   0.99576143    1.2978431    2.7914483 
   88400   0.99592175    1.3011028    2.7949485 
   88500   0.99544647    1.2993303    2.7924631 
   88600    1.0024911    1.2964745    2.8001739 
   88700    1.0013849    1.3000859    2.8021261 
   88800    1.0025857     1.298423    2.8022644 
   88900     1.003167    1.3052222    2.8099354 
   89000    0.9970073    1.2977038    2.7931778 
   89100   0.99575129    1.2991637    2.7927537 
   89200   0.99581284    1.2928091    2.7864914 
   89300   0.99586026    1.2889858    2.7827393 
   89400     1.002539      1.28934    2.7931113 
   89500   0.99975166    1.2942992    2.7938896 
   89600    1.0074269    1.2960404    2.8071433 
   89700    1.0038146    1.2987068    2.8043914 
   89800    1.0003629    1.2996497     2.800157 
   89900    1.0078021    1.2878926    2.7995583 
   90000    1.0013249    1.2917637     2.793714 
   90100   0.99942791    1.2888557    2.7879605 
   90200   0.99508665    1.2922448    2.7848379 
   90300   0.99902652    1.2905946    2.7890973 
   90400    1.0006146    1.2858759    2.7867607 
   90500    1.0089747    1.2906892    2.8041138 
   90600    1.0058787    1.2942533    2.8030341 
   90700    1.0004231    1.2986191    2.7992167 
   90800   0.99767171    1.3010856    2.7975562 
   90900   0.99673181    1.2925484    2.7876092 
   91000    1.0002143    1.2942796     2.794564 
   91100   0.99566341     1.293949    2.7874072 
   91200   0.99773589    1.2936897    2.7902566 
   91300   0.99813056      1.29399    2.7911489 
   91400   0.99810715    1.2925986    2.7897224 
   91500    1.0046836    1.2880416    2.7950297 
   91600   0.99912896    1.2908607    2.7895171 
   91700    1.0029559    1.2809789    2.7853756 
   91800   0.99773331    1.2831477    2.7797106 
   91900   0.99551639    1.2820253    2.7752629 
   92000   0.99608997     1.284555     2.778653 
   92100    1.0048484    1.2812044    2.7884397 
   92200    1.0024848    1.2871756    2.7908656 
   92300    1.0095161    1.2797813     2.794018 
   92400    1.0032191    1.2832733    2.7880648 
   92500   0.99748021    1.2882722    2.7844555 
   92600    1.0050774    1.2751551    2.7827339 
   92700   0.99411865    1.2851097    2.7762508 
   92800    1.0021247      1.27913    2.7822798 
   92900   0.99873811    1.2845543    2.7826245 
   93000    1.0069695    1.2831146    2.7935315 
   93100    1.0068499    1.2910709    2.8013083 
   93200    1.0040326    1.2891081    2.7951197 
   93300    1.0054554    1.2862937    2.7944396 
   93400    1.0003561    1.2861311    2.7866282 
   93500   0.99851034    1.2868642    2.7845927 
   93600    1.0007933    1.2875998    2.7887527 
   93700    1.0009664    1.2875509    2.7889634 
   93800    1.0017843    1.2916995    2.7943389 
   93900    1.0022231    1.2935543    2.7968518 
   94000    1.0047646    1.2918582    2.7989678 
   94100    1.0008774    1.2964877    2.7977668 
   94200    1.0011819    1.2933802    2.7951159 
   94300   0.99303444    1.2940234    2.7835382 
   94400   0.99358911     1.292143    2.7824898 
   94500   0.99509504    1.2925068    2.7851124 
   94600   0.99683077    1.2955386    2.7907478 
   94700   0.99885063    1.2992728    2.7975118 
   94800    1.0026488    1.2963937    2.8003298 
   94900    1.0041349    1.2931204    2.7992855 
   95000    1.0023248    1.2938668    2.7973168 
   95100   0.99792229    1.2988756    2.7957221 
   95200   0.99370426    1.2949062    2.7854257 
   95300   0.99591591    1.2929266    2.7867635 
   95400   0.99477699    1.2880332    2.7801618 
   95500   0.99429545    1.2890632    2.7804695 
   95600   0.99960469      1.29358    2.7929499 
   95700   0.99579172    1.2993769    2.7930276 
   95800    1.0055279    1.2980448    2.8062994 
   95900    1.0007303    1.3022663    2.8033246 
   96000   0.99931729    1.3016124    2.8005513 
   96100   0.99985943    1.3034719     2.803224 
   96200    0.9958563    1.2989856    2.7927331 
   96300   0.99581122     1.297854     2.791534 
   96400   0.99376967    1.2999193    2.7905369 
   96500   0.99517808    1.3027273    2.7954576 
   96600    1.0050515    1.3020837    2.8096236 
   96700     1.000779    1.3078941    2.8090256 
   96800    1.0012891    1.3015291    2.8034256 
   96900    1.0000715    1.3053145    2.8053847 
   97000   0.99982353    1.2931457    2.7928439 
   97100   0.99765771    1.2986502    2.7950998 
   97200    0.9995907    1.2995653    2.7989143 
   97300   0.99926699    1.3064415    2.8053049 
   97400    1.0085255    1.3046291    2.8173799 
   97500    1.0000396    1.3080988    2.8081211 
   97600    1.0038142    1.2998298    2.8055139 
   97700    1.0036853    1.2962507    2.8017415 
   97800   0.99833865    1.2955623    2.7930333 
   97900    1.0001394     1.297221     2.797393 
   98000    1.0028292    1.2936057    2.7978123 
   98100    1.0005039    1.3000964    2.8008152 
   98200    1.0044938    1.2948672    2.8015705 
   98300    0.9951999    1.2958029    2.7885658 
   98400    1.0001739       1.2841    2.7843238 
   98500   0.99112756    1.2925271    2.7791817 
   98600   0.99488596    1.2979587    2.7902508 
   98700   0.99688202    1.3028043    2.7980904 
   98800    1.0008351    1.2970195     2.798235 
   98900    1.0048608    1.3009782    2.8082321 
   99000   0.99961792    1.3015036    2.8008934 
   99100    1.0020814    1.3013716    2.8044565 
   99200    1.0012011    1.3013704    2.8031349 
   99300   0.99203955    1.3002024     2.788225 
   99400   0.99395823    1.2953617    2.7862622 
   99500   0.99488136    1.2951858    2.7874709 
   99600   0.99909253    1.2939009    2.7925026 
   99700   0.99892744    1.2993849     2.797739 
   99800   0.99970466    1.3006812    2.8002011 
   99900    1.0003159    1.2951397    2.7955764 
  100000    1.0001962     1.297864    2.7981212 
Loop time of 932.938 on 32 procs for 100000 steps with 40455 atoms

Performance: 18522.122 tau/day, 107.188 timesteps/s
92.2% CPU use with 4 MPI tasks x 8 OpenMP threads

MPI task timing breakdown:
Section |  min time  |  avg time  |  max time  |%varavg| %total
---------------------------------------------------------------
Pair    | 162.03     | 409.62     | 587.65     | 770.4 | 43.91
Bond    | 4.7636     | 11.869     | 16.347     | 132.4 |  1.27
Neigh   | 102.12     | 106.47     | 110.86     |  42.1 | 11.41
Comm    | 87.962     | 305.15     | 579.03     |1050.4 | 32.71
Output  | 19.727     | 19.756     | 19.787     |   0.5 |  2.12
Modify  | 26.615     | 72.859     | 106.15     | 399.8 |  7.81
Other   |            | 7.216      |            |       |  0.77

Nlocal:    10113.8 ave 13481 max 4396 min
Histogram: 1 0 0 0 0 0 0 2 0 1
Nghost:    5177.25 ave 6375 max 3748 min
Histogram: 1 0 0 0 0 1 1 0 0 1
Neighs:    340002 ave 483322 max 121967 min
Histogram: 1 0 0 0 0 0 0 2 0 1

Total # of neighbors = 1360007
Ave neighs/atom = 33.6178
Ave special neighs/atom = 1.28736
Neighbor list builds = 6273
Dangerous builds = 0


Total wall time: 0:23:58
