LAMMPS (3 Mar 2020)
  using 8 OpenMP thread(s) per MPI task
##

############################################################
#####	 	    Argon sandwich	   	   #########
############################################################
variable		temperature equal 85.0

units			real
atom_style		atomic
dimension 		3
boundary		p p p

read_data		atomdata
  orthogonal box = (0 0 0) to (687.75 121.83 110.04)
  4 by 1 by 1 MPI processor grid
  reading atoms ...
  179040 atoms
  read_data CPU = 0.207697 secs
#read_restart 		water.restart.mpiio

############################################################
#############INTERACTION PARAMETERS#########################
group                   bread     type 2
130200 atoms in group bread
group                   ham       type 1
48840 atoms in group ham

mass                    2       195.084  ## atomic mass of platinum
mass                    1       39.95  ## atomic mass of platinum

neighbor        	2.0 bin
neigh_modify		every 1 delay 1 check yes

################# hybrid potential #######################
#pair_style 		hybrid/overlay lj/cut 18.7 sw

#pair_coeff              * * sw mW.sw mW NULL
#pair_coeff	    	2 2  lj/cut 15.999 2.47 7.0
#pair_coeff		1 2  lj/cut 0.9 2.8140 7.0
################### L-J potential #####################
pair_style             lj/cut  5.5

pair_coeff             1 1  0.24 3.4  18.7
pair_coeff             1 2  0.168 2.72  18.7
pair_coeff             2 2  15.999 2.47  7.0
######################################################

fix	    		f1 bread setforce 0.0 0.0 0.0
thermo			5
min_style 		fire
minimize    		1.0e-5 1.0e-7 200 10000
WARNING: Using 'neigh_modify every 1 delay 0 check yes' setting during minimization (../min.cpp:190)
Neighbor list info ...
  update every 1 steps, delay 0 steps, check yes
  max neighbors/atom: 2000, page size: 100000
  master list distance cutoff = 20.7
  ghost atom cutoff = 20.7
  binsize = 10.35, bins = 67 12 11
  1 neighbor lists, perpetual/occasional/extra = 1 0 0
  (1) pair lj/cut, perpetual
      attributes: half, newton on
      pair build: half/bin/atomonly/newton
      stencil: half/bin/3d/newton
      bin: standard
  Parameters for fire: 
    dmax delaystep dtgrow dtshrink alpha0 alphashrink tmax tmin    integrator halfstepback 
     0.1        20    1.1      0.5   0.25        0.99   10 0.02 eulerimplicit          yes 
Per MPI rank memory allocation (min/avg/max) = 60.47 | 91.73 | 136.2 Mbytes
Step Temp E_pair E_mol TotEng Press 
       0            0    -11277112            0    -11277112      74132.1 
       5    5674998.1    -12423468            0 3.0162166e+09     15055580 
      10    2321794.5    -13496144            0 1.225602e+09      6151263 
      15    1131941.1    -13685413            0 5.9041031e+08    2997255.6 
      20    961407.19    -14165802            0 4.9891919e+08    2531347.7 
      25    853477.74    -14862412            0 4.4062266e+08    2224174.4 
      30     679755.5    -15233836            0 3.4753893e+08      1752675 
      35    545007.38    -15399514            0 2.7546071e+08    1390653.3 
      40    445893.96    -15474893            0 2.2249036e+08    1125798.1 
      45    378236.64    -15516674            0 1.8634113e+08    945267.61 
      50    310536.15    -15542522            0 1.501848e+08    765147.38 
      55    244823.02    -15557435            0 1.1510002e+08    590669.07 
      60    187613.78    -15566945            0     84559013    438887.28 
      65    137999.02    -15572786            0     58074702    307343.65 
      70    98706.518    -15576772            0     37101046    203187.81 
      75    65759.782    -15579640            0     19515122    115869.98 
      80    40429.438    -15581575            0    5994857.9    48749.186 
      85    23521.505    -15583023            0   -3030036.4    3938.9243 
      90    12392.752    -15584162            0   -8970382.7   -25562.331 
      95    5876.7118    -15585039            0    -12448748   -42842.588 
Loop time of 35.3815 on 32 procs for 95 steps with 179040 atoms

95.3% CPU use with 4 MPI tasks x 8 OpenMP threads

Minimization stats:
  Stopping criterion = energy tolerance
  Energy initial, next-to-last, final = 
        -11277112.4789     -15584887.0007     -15585038.7841
  Force two-norm initial, final = 4.36107e+06 64.7682
  Force max component initial, final = 1.71204e+06 1.77338
  Final line search alpha, max atom move = 0 0
  Iterations, force evaluations = 95 96

MPI task timing breakdown:
Section |  min time  |  avg time  |  max time  |%varavg| %total
---------------------------------------------------------------
Pair    | 3.7282     | 14.347     | 29.529     | 292.8 | 40.55
Neigh   | 1.9567     | 3.2328     | 5.0554     |  74.1 |  9.14
Comm    | 0.42025    | 14.95      | 29.327     | 275.2 | 42.25
Output  | 0.011252   | 0.011829   | 0.012588   |   0.5 |  0.03
Modify  | 0.010761   | 0.01214    | 0.013009   |   0.8 |  0.03
Other   |            | 2.828      |            |       |  7.99

Nlocal:    44760 ave 61766 max 32364 min
Histogram: 2 0 0 0 0 0 1 0 0 1
Nghost:    85454 ave 97526 max 75828 min
Histogram: 2 0 0 0 0 0 0 1 0 1
Neighs:    8.85027e+06 ave 1.74625e+07 max 2.80159e+06 min
Histogram: 2 0 0 0 0 0 1 0 0 1

Total # of neighbors = 35401091
Ave neighs/atom = 197.727
Neighbor list builds = 10
Dangerous builds = 1


############################################################
#############EQUILIBRATION PARAMETERS######################
velocity 		ham create ${temperature} 12345
velocity 		ham create 85 12345
compute 		myTemp ham temp
fix			1 ham nvt temp ${temperature} ${temperature} 100.0
fix			1 ham nvt temp 85 ${temperature} 100.0
fix			1 ham nvt temp 85 85 100.0
fix_modify   		1 temp myTemp
WARNING: Temperature for fix modify is not for group all (../fix_nh.cpp:1409)

fix	    		f2 bread setforce 0.0 0.0 0.0
velocity		bread set 0.0 0.0 0.0

###########################################################
############### Post parameters############################
thermo_style    	custom step temp pe etotal
thermo_modify	        temp myTemp
WARNING: Temperature for thermo pressure is not for group all (../thermo.cpp:485)
thermo			100
fix            		extra ham print 2000 "$(step) $(temp) $(pe)" append iteration_info.dat 			screen no

timestep		5.0
reset_timestep 		0
restart     		100000 water.restart.mpiio
dump			1 all custom 500 sandwich.dat id type x y z
run			200000
Per MPI rank memory allocation (min/avg/max) = 66.42 | 98.07 | 143 Mbytes
Step Temp PotEng TotEng 
       0           85    -15585039    -15572665 
     100    78.036651    -15579876    -15568515 
     200    84.247075    -15579281    -15567017 
     300    84.963205    -15579234    -15566865 
     400    85.281561    -15579235    -15566820 
     500    84.499287    -15579176    -15566874 
     600    84.881257    -15579183    -15566826 
     700    84.862844    -15579194    -15566840 
     800    85.102635    -15579198    -15566809 
     900    85.235534    -15579211    -15566802 
    1000    84.947984    -15579208    -15566841 
    1100    84.936381    -15579305    -15566940 
    1200    84.785127    -15579371    -15567028 
    1300    84.850246    -15579367    -15567015 
    1400    85.626937    -15579448    -15566982 
    1500     85.39624    -15579514    -15567082 
    1600    84.934265    -15579523    -15567159 
    1700    84.896972    -15579545    -15567186 
    1800    85.493034    -15579541    -15567095 
    1900    85.236058    -15579463    -15567054 
    2000    84.624605    -15579628    -15567309 
    2100    84.609568    -15579604    -15567287 
    2200    85.371661    -15579738    -15567309 
    2300    85.272289    -15579760    -15567346 
    2400    84.899237    -15579744    -15567385 
    2500     84.88966    -15579814    -15567455 
    2600    85.136078    -15579881    -15567487 
    2700    84.644194    -15579929    -15567607 
    2800    84.875738    -15580076    -15567720 
    2900    85.244171    -15580094    -15567684 
    3000     84.99242    -15580157    -15567784 
    3100    85.210117    -15580380    -15567975 
    3200    85.005753    -15580342    -15567967 
    3300    85.074696    -15580519    -15568134 
    3400     84.75997    -15580544    -15568205 
    3500    85.085554    -15580695    -15568308 
    3600    84.718955    -15580698    -15568365 
    3700    84.910093    -15580835    -15568473 
    3800    84.842722    -15580826    -15568475 
    3900    84.393769    -15580993    -15568707 
    4000    85.386065    -15581058    -15568628 
    4100    85.398823    -15581127    -15568694 
    4200    84.938106    -15581192    -15568827 
    4300    85.147611    -15581227    -15568831 
    4400     85.38869    -15581284    -15568853 
    4500    85.019554    -15581470    -15569093 
    4600    84.724899    -15581482    -15569148 
    4700    85.086319    -15581528    -15569141 
    4800    85.012965    -15581535    -15569159 
    4900    85.004717    -15581540    -15569165 
    5000    85.132846    -15581712    -15569318 
    5100    85.159877    -15581799    -15569402 
    5200    85.224295    -15581818    -15569411 
    5300     85.62422    -15581812    -15569346 
    5400    84.620705    -15581939    -15569620 
    5500    84.543329    -15581987    -15569679 
    5600    84.951681    -15582026    -15569659 
    5700    85.357355    -15582114    -15569687 
    5800    85.633318    -15582170    -15569703 
    5900    85.102056    -15582167    -15569778 
    6000    84.927301    -15582247    -15569884 
    6100    85.481053    -15582299    -15569855 
    6200    85.411307    -15582314    -15569880 
    6300    85.402413    -15582283    -15569850 
    6400    84.985364    -15582375    -15570003 
    6500    84.842413    -15582344    -15569993 
    6600    84.310441    -15582414    -15570140 
    6700    84.631221    -15582405    -15570084 
    6800    85.032245    -15582479    -15570100 
    6900    84.969767    -15582495    -15570125 
    7000    85.098363    -15582504    -15570115 
    7100    84.976524    -15582584    -15570213 
    7200    84.862226    -15582593    -15570239 
    7300    85.024087    -15582533    -15570155 
    7400    85.298446    -15582567    -15570150 
    7500    85.307654    -15582583    -15570164 
    7600      84.7499    -15582576    -15570238 
    7700    84.850858    -15582673    -15570321 
    7800    84.840764    -15582670    -15570319 
    7900    84.349259    -15582630    -15570350 
    8000    85.282991    -15582645    -15570229 
    8100     84.81588    -15582671    -15570324 
    8200    84.798979    -15582676    -15570331 
    8300    85.001907    -15582605    -15570231 
    8400    85.222028    -15582636    -15570229 
    8500    85.426399    -15582578    -15570142 
    8600    85.856929    -15582625    -15570126 
    8700    84.533237    -15582611    -15570304 
    8800    84.575567    -15582619    -15570307 
    8900    84.964662    -15582639    -15570270 
    9000    84.754785    -15582651    -15570313 
    9100    84.515836    -15582674    -15570370 
    9200      85.2377    -15582638    -15570229 
    9300    85.839735    -15582631    -15570135 
    9400    85.322222    -15582650    -15570229 
    9500     85.52333    -15582644    -15570193 
    9600    85.635122    -15582660    -15570193 
    9700    85.560124    -15582669    -15570213 
    9800     84.59289    -15582731    -15570416 
    9900    84.641329    -15582761    -15570439 
   10000    84.546372    -15582662    -15570354 
   10100    85.182007    -15582718    -15570317 
   10200    85.453604    -15582745    -15570304 
   10300    84.847713    -15582783    -15570431 
   10400    85.579708    -15582823    -15570364 
   10500    85.613853    -15582816    -15570352 
   10600    84.742559    -15582799    -15570462 
   10700    85.068839    -15582776    -15570392 
   10800    85.181985    -15582828    -15570427 
   10900    85.237956    -15582875    -15570467 
   11000    84.854444    -15582875    -15570522 
   11100    84.731238    -15582928    -15570593 
   11200    84.202988    -15582839    -15570581 
   11300    85.080206    -15582925    -15570539 
   11400    85.082337    -15582910    -15570524 
   11500    84.768722    -15582867    -15570526 
   11600     84.83312    -15582944    -15570594 
   11700    84.867094    -15582936    -15570581 
   11800    85.045981    -15582851    -15570470 
   11900    85.271906    -15582913    -15570499 
   12000    85.441487    -15582885    -15570447 
   12100    85.246065    -15582909    -15570499 
   12200    84.792732    -15582945    -15570601 
   12300    84.572821    -15583009    -15570697 
   12400    84.354178    -15583013    -15570732 
   12500    84.998923    -15583093    -15570719 
   12600      85.3002    -15583065    -15570648 
   12700    85.108018    -15582968    -15570578 
   12800    85.557026    -15583070    -15570615 
   12900     85.17155    -15583126    -15570727 
   13000    85.054142    -15583116    -15570734 
   13100    85.365138    -15583137    -15570710 
   13200    84.387833    -15583179    -15570894 
   13300    84.636411    -15583156    -15570835 
   13400    84.847086    -15583163    -15570811 
   13500    85.070742    -15583193    -15570808 
   13600    84.817099    -15583219    -15570871 
   13700    85.008579    -15583190    -15570815 
   13800    85.180868    -15583191    -15570790 
   13900    85.084822    -15583261    -15570874 
   14000    84.935922    -15583242    -15570877 
   14100    85.505382    -15583249    -15570801 
   14200    84.047948    -15583238    -15571003 
   14300    85.271546    -15583282    -15570869 
   14400    85.316781    -15583342    -15570922 
   14500    85.187614    -15583292    -15570890 
   14600    84.949138    -15583280    -15570913 
   14700    85.752256    -15583266    -15570783 
   14800    84.659077    -15583264    -15570939 
   14900    85.005149    -15583317    -15570942 
   15000    84.836254    -15583328    -15570978 
   15100    84.730234    -15583280    -15570945 
   15200    85.618221    -15583301    -15570837 
   15300    84.763963    -15583306    -15570966 
   15400    85.463674    -15583303    -15570861 
   15500    85.807587    -15583355    -15570863 
   15600    85.288282    -15583364    -15570947 
   15700    85.828771    -15583333    -15570838 
   15800    85.275546    -15583297    -15570882 
   15900    85.191133    -15583282    -15570880 
   16000    84.907934    -15583327    -15570966 
   16100    84.924206    -15583267    -15570904 
   16200    84.859414    -15583212    -15570858 
   16300    84.840556    -15583244    -15570893 
   16400    84.739645    -15583207    -15570870 
   16500    85.310164    -15583261    -15570842 
   16600    85.638832    -15583338    -15570871 
   16700    85.333173    -15583249    -15570826 
   16800    85.256532    -15583259    -15570847 
   16900    84.695483    -15583243    -15570913 
   17000    85.121389    -15583260    -15570868 
   17100     85.40867    -15583250    -15570817 
   17200    85.385159    -15583259    -15570828 
   17300    85.066591    -15583248    -15570864 
   17400     84.70445    -15583185    -15570853 
   17500    85.095736    -15583275    -15570887 
   17600    85.064061    -15583212    -15570828 
   17700    84.743154    -15583148    -15570811 
   17800    85.051638    -15583096    -15570714 
   17900      85.1023    -15583036    -15570647 
   18000    85.180917    -15583141    -15570740 
   18100    85.083385    -15583056    -15570670 
   18200    84.618952    -15583084    -15570765 
   18300    85.493831    -15583040    -15570594 
   18400    85.147339    -15583021    -15570626 
   18500    84.582297    -15583025    -15570712 
   18600     84.34866    -15583053    -15570774 
   18700    84.162144    -15582989    -15570737 
   18800    85.012184    -15582955    -15570579 
   18900    84.721428    -15582944    -15570611 
   19000    85.138889    -15582970    -15570576 
   19100    85.382731    -15582980    -15570550 
   19200     84.96442    -15582950    -15570581 
   19300    84.930478    -15582915    -15570551 
   19400    84.598311    -15582938    -15570622 
   19500    84.318826    -15582905    -15570630 
   19600    85.088063    -15582835    -15570448 
   19700    84.830896    -15582773    -15570424 
   19800    85.044916    -15582872    -15570491 
   19900    84.973659    -15582755    -15570384 
   20000    85.271533    -15582831    -15570417 
   20100    85.164104    -15582775    -15570377 
   20200    85.023901    -15582799    -15570422 
   20300    84.712301    -15582792    -15570460 
   20400    84.506414    -15582787    -15570485 
   20500    85.253103    -15582750    -15570339 
   20600    84.903529    -15582759    -15570399 
   20700    84.738955    -15582799    -15570463 
   20800    84.091793    -15582717    -15570475 
   20900    85.011472    -15582701    -15570325 
   21000    85.159875    -15582755    -15570358 
   21100    85.232311    -15582764    -15570356 
   21200    85.033798    -15582693    -15570314 
   21300    85.171327    -15582687    -15570287 
   21400    84.877117    -15582678    -15570322 
   21500     84.85832    -15582662    -15570308 
   21600    85.179527    -15582619    -15570218 
   21700    84.994739    -15582618    -15570244 
   21800    85.252503    -15582643    -15570232 
   21900    85.339146    -15582641    -15570218 
   22000    85.290774    -15582632    -15570216 
   22100    85.547989    -15582637    -15570183 
   22200    85.533234    -15582637    -15570185 
   22300    84.794843    -15582660    -15570316 
   22400    84.955148    -15582648    -15570280 
   22500    84.617536    -15582569    -15570250 
   22600    84.506592    -15582659    -15570357 
   22700    85.187598    -15582614    -15570212 
   22800    85.187259    -15582628    -15570226 
   22900    84.973656    -15582665    -15570295 
   23000    84.689458    -15582569    -15570240 
   23100    84.921956    -15582661    -15570298 
   23200    85.371772    -15582714    -15570286 
   23300    85.324934    -15582738    -15570316 
   23400    84.739248    -15582686    -15570349 
   23500    84.901688    -15582702    -15570342 
   23600    85.125795    -15582691    -15570299 
   23700    84.669394    -15582715    -15570389 
   23800    85.043716    -15582700    -15570319 
   23900    84.660833    -15582635    -15570310 
   24000    85.295808    -15582605    -15570188 
   24100    85.214358    -15582658    -15570253 
   24200    85.100689    -15582628    -15570239 
   24300     84.69394    -15582621    -15570292 
   24400    84.678241    -15582660    -15570333 
   24500    84.771874    -15582664    -15570323 
   24600     85.06574    -15582665    -15570281 
   24700    85.090211    -15582682    -15570294 
   24800    85.136558    -15582610    -15570216 
   24900    84.989069    -15582663    -15570290 
   25000    84.859588    -15582617    -15570263 
   25100    84.695478    -15582653    -15570323 
   25200    84.635344    -15582592    -15570271 
   25300    84.757895    -15582651    -15570312 
   25400    84.865703    -15582644    -15570289 
   25500    84.728539    -15582565    -15570230 
   25600    85.160368    -15582694    -15570297 
   25700    85.030682    -15582675    -15570296 
   25800    84.745856    -15582672    -15570335 
   25900     84.88074    -15582688    -15570331 
   26000    85.645516    -15582665    -15570196 
   26100    85.440359    -15582695    -15570256 
   26200    84.367071    -15582707    -15570425 
   26300    84.828685    -15582629    -15570280 
   26400    84.814953    -15582690    -15570343 
   26500    84.527539    -15582678    -15570373 
   26600    85.405764    -15582651    -15570218 
   26700    84.948461    -15582636    -15570270 
   26800     84.85296    -15582706    -15570353 
   26900    84.501914    -15582745    -15570443 
   27000    84.957959    -15582759    -15570391 
   27100     85.26141    -15582759    -15570347 
   27200    85.301976    -15582727    -15570309 
   27300    85.541234    -15582746    -15570293 
   27400    85.113021    -15582809    -15570418 
   27500    85.025882    -15582757    -15570379 
   27600    84.497872    -15582788    -15570487 
   27700    84.860462    -15582753    -15570399 
   27800      84.8191    -15582733    -15570386 
   27900    85.082591    -15582733    -15570347 
   28000    84.933548    -15582790    -15570425 
   28100    84.935989    -15582700    -15570335 
   28200    85.573006    -15582758    -15570300 
   28300    85.523255    -15582826    -15570376 
   28400    85.107645    -15582747    -15570357 
   28500    85.101399    -15582806    -15570417 
   28600     85.16692    -15582813    -15570414 
   28700    85.077432    -15582795    -15570410 
   28800    84.766685    -15582802    -15570462 
   28900    85.090469    -15582807    -15570419 
   29000    84.966738    -15582798    -15570428 
   29100    84.790541    -15582728    -15570384 
   29200    85.025504    -15582806    -15570428 
   29300    84.971105    -15582811    -15570441 
   29400    84.716936    -15582775    -15570442 
   29500    84.930002    -15582859    -15570495 
   29600    84.912925    -15582812    -15570451 
   29700    84.801646    -15582886    -15570541 
   29800    85.093718    -15582837    -15570449 
   29900    85.045585    -15582895    -15570514 
   30000    84.664587    -15582862    -15570536 
   30100    84.734853    -15582805    -15570469 
   30200    84.844971    -15582828    -15570477 
   30300    85.366909    -15582882    -15570454 
   30400    85.072981    -15582827    -15570442 
   30500    85.331652    -15582846    -15570424 
   30600    84.887639    -15582937    -15570579 
   30700    85.300048    -15582953    -15570535 
   30800    84.602078    -15582871    -15570555 
   30900    85.045747    -15582916    -15570535 
   31000    85.249491    -15582916    -15570505 
   31100    85.310962    -15582913    -15570493 
   31200    84.923704    -15582952    -15570588 
   31300    84.545607    -15582981    -15570673 
   31400    85.905801    -15582940    -15570434 
   31500     84.65141    -15582943    -15570620 
   31600    84.777166    -15582846    -15570504 
   31700    84.829596    -15582940    -15570591 
   31800    84.593131    -15582900    -15570585 
   31900     85.46126    -15582886    -15570445 
   32000    84.598455    -15582919    -15570603 
   32100    84.698306    -15582936    -15570605 
   32200     84.88251    -15582975    -15570618 
   32300    84.521113    -15582943    -15570638 
   32400     84.99307    -15582944    -15570571 
   32500    85.199785    -15582988    -15570585 
   32600     84.60033    -15582898    -15570582 
   32700    84.801605    -15582841    -15570495 
   32800    85.288582    -15582912    -15570496 
   32900    84.820859    -15582862    -15570513 
   33000    85.066857    -15582930    -15570546 
   33100     85.46193    -15582914    -15570472 
   33200    84.956162    -15582900    -15570532 
   33300    84.983335    -15582921    -15570550 
   33400    85.366056    -15582916    -15570488 
   33500    85.086975    -15582856    -15570469 
   33600    85.010712    -15582885    -15570509 
   33700    85.082106    -15582861    -15570474 
   33800    84.962734    -15582851    -15570482 
   33900    84.907993    -15582878    -15570517 
   34000    84.970765    -15582879    -15570509 
   34100     84.86839    -15582867    -15570512 
   34200    84.898001    -15582911    -15570552 
   34300    85.307779    -15582865    -15570446 
   34400    84.992633    -15582878    -15570505 
   34500    85.735071    -15582955    -15570474 
   34600    84.615124    -15582848    -15570530 
   34700    84.903003    -15582855    -15570494 
   34800    84.795634    -15582878    -15570534 
   34900    84.909505    -15582849    -15570487 
   35000    85.014252    -15582858    -15570482 
   35100     85.24737    -15582897    -15570487 
   35200    85.130428    -15582831    -15570438 
   35300    85.325596    -15582929    -15570507 
   35400    84.492085    -15582768    -15570468 
   35500    85.333905    -15582808    -15570385 
   35600    85.343087    -15582808    -15570384 
   35700    84.990545    -15582772    -15570399 
   35800    85.473117    -15582816    -15570373 
   35900    85.404673    -15582794    -15570360 
   36000    84.842385    -15582807    -15570456 
   36100    85.243457    -15582761    -15570351 
   36200    84.428642    -15582720    -15570429 
   36300    84.937277    -15582784    -15570419 
   36400    84.791527    -15582719    -15570375 
   36500    84.998455    -15582653    -15570279 
   36600     85.09093    -15582762    -15570375 
   36700    84.369504    -15582669    -15570387 
   36800    84.553899    -15582727    -15570417 
   36900    84.475266    -15582691    -15570393 
   37000    84.964608    -15582674    -15570305 
   37100    85.025269    -15582733    -15570355 
   37200    85.033326    -15582753    -15570374 
   37300    84.891979    -15582673    -15570315 
   37400    84.965182    -15582705    -15570336 
   37500    85.024237    -15582731    -15570353 
   37600    84.709335    -15582663    -15570331 
   37700    84.437412    -15582641    -15570348 
   37800    84.791249    -15582684    -15570340 
   37900    85.438168    -15582668    -15570230 
   38000     84.80269    -15582639    -15570294 
   38100    84.694298    -15582713    -15570383 
   38200    84.499161    -15582707    -15570406 
   38300    85.230449    -15582743    -15570335 
   38400    84.922999    -15582686    -15570323 
   38500    85.062838    -15582729    -15570345 
   38600    85.027721    -15582716    -15570338 
   38700    84.930828    -15582636    -15570272 
   38800    84.836238    -15582680    -15570330 
   38900    85.177508    -15582743    -15570342 
   39000    84.452303    -15582719    -15570425 
   39100    85.262085    -15582658    -15570246 
   39200    84.271429    -15582690    -15570422 
   39300     85.33099    -15582731    -15570308 
   39400    84.745523    -15582710    -15570373 
   39500    84.291599    -15582726    -15570455 
   39600      85.4797    -15582754    -15570309 
   39700    85.182003    -15582737    -15570336 
   39800      84.8677    -15582698    -15570343 
   39900    84.757589    -15582710    -15570371 
   40000     84.44581    -15582618    -15570324 
   40100    84.950484    -15582706    -15570339 
   40200    85.132223    -15582657    -15570264 
   40300    84.976175    -15582695    -15570325 
   40400    85.301311    -15582705    -15570287 
   40500    84.763165    -15582775    -15570435 
   40600    84.962098    -15582734    -15570365 
   40700     85.17781    -15582747    -15570346 
   40800    84.556668    -15582776    -15570466 
   40900    85.325606    -15582734    -15570313 
   41000    84.894787    -15582677    -15570318 
   41100    84.986097    -15582695    -15570322 
   41200    84.906768    -15582748    -15570387 
   41300    84.959688    -15582661    -15570293 
   41400    85.016755    -15582709    -15570332 
   41500    85.242813    -15582816    -15570406 
   41600    84.655862    -15582756    -15570432 
   41700    84.858275    -15582759    -15570406 
   41800    84.902924    -15582783    -15570423 
   41900    85.000592    -15582663    -15570288 
   42000    84.461909    -15582801    -15570505 
   42100     84.39046    -15582766    -15570480 
   42200    85.662756    -15582814    -15570343 
   42300    84.900371    -15582833    -15570473 
   42400    84.756135    -15582811    -15570473 
   42500    85.368832    -15582875    -15570447 
   42600    85.157444    -15582781    -15570384 
   42700    85.380897    -15582838    -15570409 
   42800    84.743386    -15582785    -15570448 
   42900    84.939004    -15582750    -15570384 
   43000    84.776385    -15582732    -15570390 
   43100    85.181123    -15582812    -15570411 
   43200    84.925116    -15582815    -15570451 
   43300    85.590727    -15582803    -15570343 
   43400    84.595576    -15582784    -15570469 
   43500    84.762543    -15582865    -15570526 
   43600    85.118285    -15582830    -15570439 
   43700    85.497201    -15582898    -15570452 
   43800    84.704227    -15582852    -15570521 
   43900    85.738463    -15582910    -15570428 
   44000    84.398694    -15582791    -15570504 
   44100    84.832773    -15582886    -15570536 
   44200    84.867209    -15582850    -15570495 
   44300    85.022589    -15582877    -15570500 
   44400    85.392183    -15582924    -15570493 
   44500     85.22368    -15582810    -15570404 
   44600    85.089979    -15582831    -15570444 
   44700    85.107838    -15582917    -15570527 
   44800    84.597436    -15582883    -15570568 
   44900    85.198706    -15582887    -15570484 
   45000    85.106863    -15582837    -15570448 
   45100    84.433548    -15582877    -15570585 
   45200    84.626443    -15582817    -15570497 
   45300    84.959599    -15582890    -15570522 
   45400    84.638349    -15582778    -15570457 
   45500    85.199153    -15582833    -15570430 
   45600    85.106065    -15582787    -15570397 
   45700    84.679244    -15582871    -15570543 
   45800    85.349376    -15582886    -15570461 
   45900    85.032728    -15582835    -15570456 
   46000    84.929338    -15582797    -15570433 
   46100    84.859342    -15582819    -15570465 
   46200    84.980281    -15582881    -15570509 
   46300    84.981096    -15582818    -15570447 
   46400    84.845862    -15582835    -15570484 
   46500    85.122754    -15582831    -15570439 
   46600    85.121258    -15582834    -15570442 
   46700    85.321514    -15582858    -15570437 
   46800    84.676232    -15582879    -15570552 
   46900    84.438221    -15582807    -15570514 
   47000    84.719204    -15582805    -15570472 
   47100     84.55936    -15582772    -15570462 
   47200    84.748731    -15582783    -15570445 
   47300    85.110738    -15582774    -15570384 
   47400    84.907145    -15582803    -15570442 
   47500    85.114191    -15582803    -15570412 
   47600    85.655366    -15582840    -15570371 
   47700    85.306929    -15582762    -15570343 
   47800    84.876889    -15582700    -15570344 
   47900    85.331551    -15582750    -15570327 
   48000    85.792588    -15582877    -15570387 
   48100    85.535023    -15582780    -15570328 
   48200    85.318295    -15582818    -15570398 
   48300    84.975342    -15582822    -15570451 
   48400    85.196876    -15582789    -15570386 
   48500    84.698569    -15582771    -15570441 
   48600    85.073222    -15582757    -15570373 
   48700    85.103098    -15582767    -15570377 
   48800    85.283048    -15582780    -15570364 
   48900      85.1257    -15582705    -15570312 
   49000    85.189196    -15582738    -15570336 
   49100    84.773818    -15582740    -15570399 
   49200     84.17343    -15582763    -15570509 
   49300     85.45861    -15582674    -15570233 
   49400    85.264609    -15582669    -15570256 
   49500    84.499713    -15582643    -15570342 
   49600    85.295134    -15582756    -15570339 
   49700    85.143699    -15582656    -15570261 
   49800    85.213471    -15582692    -15570287 
   49900    84.677547    -15582605    -15570278 
   50000    84.869079    -15582754    -15570399 
   50100    84.662107    -15582698    -15570373 
   50200    85.407856    -15582682    -15570248 
   50300    85.225679    -15582661    -15570254 
   50400    84.973475    -15582697    -15570327 
   50500    85.301538    -15582664    -15570246 
   50600     85.17319    -15582698    -15570299 
   50700    85.061979    -15582687    -15570304 
   50800     84.77347    -15582682    -15570340 
   50900    85.421922    -15582706    -15570270 
   51000    85.553936    -15582671    -15570216 
   51100    85.019609    -15582549    -15570172 
   51200     84.75195    -15582635    -15570297 
   51300    84.592113    -15582631    -15570316 
   51400     85.23787    -15582646    -15570237 
   51500    85.031864    -15582617    -15570238 
   51600    85.140253    -15582600    -15570205 
   51700    85.123535    -15582713    -15570321 
   51800    84.908819    -15582629    -15570268 
   51900    84.836624    -15582590    -15570239 
   52000    85.114316    -15582596    -15570205 
   52100    84.703906    -15582699    -15570368 
   52200    85.275755    -15582660    -15570245 
   52300    84.767989    -15582664    -15570323 
   52400    84.963654    -15582687    -15570318 
   52500    85.072409    -15582638    -15570253 
   52600    85.020704    -15582660    -15570283 
   52700    84.768044    -15582589    -15570249 
   52800    85.239461    -15582722    -15570313 
   52900    84.438048    -15582697    -15570404 
   53000    84.968098    -15582615    -15570246 
   53100    85.440315    -15582601    -15570163 
   53200    85.658015    -15582612    -15570142 
   53300    85.608201    -15582555    -15570092 
   53400    85.664493    -15582571    -15570099 
   53500    84.791333    -15582590    -15570246 
   53600    84.924761    -15582542    -15570179 
   53700    85.059337    -15582705    -15570322 
   53800    84.457137    -15582613    -15570318 
   53900    84.626328    -15582572    -15570252 
   54000    84.694716    -15582633    -15570303 
   54100    85.033392    -15582686    -15570307 
   54200    84.273614    -15582719    -15570450 
   54300    85.800248    -15582709    -15570219 
   54400    84.923345    -15582611    -15570248 
   54500    85.021853    -15582631    -15570254 
   54600     84.27155    -15582699    -15570431 
   54700    84.958055    -15582602    -15570233 
   54800    85.032223    -15582653    -15570274 
   54900    85.282068    -15582633    -15570218 
   55000     85.17965    -15582702    -15570302 
   55100    84.796069    -15582709    -15570364 
   55200    85.423182    -15582658    -15570222 
   55300    85.430049    -15582613    -15570176 
   55400    84.692863    -15582733    -15570403 
   55500    85.054372    -15582689    -15570307 
   55600     85.25847    -15582735    -15570323 
   55700    84.335527    -15582659    -15570381 
   55800    85.138555    -15582720    -15570325 
   55900    84.642968    -15582678    -15570356 
   56000    85.178993    -15582712    -15570311 
   56100    85.181856    -15582627    -15570226 
   56200    84.788753    -15582598    -15570254 
   56300    84.726968    -15582700    -15570365 
   56400     85.07002    -15582733    -15570348 
   56500     84.81409    -15582683    -15570335 
   56600    84.079862    -15582667    -15570427 
   56700     84.54305    -15582725    -15570418 
   56800    84.759182    -15582671    -15570332 
   56900    84.989541    -15582722    -15570349 
   57000    84.983869    -15582718    -15570346 
   57100    85.053913    -15582662    -15570280 
   57200    85.440903    -15582731    -15570293 
   57300    84.968535    -15582738    -15570368 
   57400    84.936546    -15582725    -15570360 
   57500    85.221878    -15582810    -15570404 
   57600    84.840641    -15582737    -15570386 
   57700    84.696921    -15582668    -15570338 
   57800    84.480294    -15582700    -15570401 
   57900    84.709381    -15582708    -15570376 
   58000     84.64238    -15582728    -15570406 
   58100    85.187158    -15582728    -15570326 
   58200    85.140754    -15582695    -15570300 
   58300    85.198599    -15582719    -15570316 
   58400    85.066051    -15582737    -15570353 
   58500    85.009333    -15582654    -15570279 
   58600    85.395911    -15582720    -15570288 
   58700    85.160967    -15582668    -15570270 
   58800     84.90063    -15582635    -15570275 
   58900    84.466253    -15582668    -15570371 
   59000    84.801078    -15582609    -15570264 
   59100    85.126229    -15582706    -15570313 
   59200    85.278335    -15582732    -15570317 
   59300    85.128872    -15582663    -15570270 
   59400    85.094284    -15582727    -15570339 
   59500    85.139496    -15582744    -15570350 
   59600    84.841267    -15582773    -15570422 
   59700    84.607501    -15582723    -15570406 
   59800    84.695946    -15582685    -15570355 
   59900    84.835005    -15582705    -15570354 
   60000    85.296107    -15582648    -15570230 
   60100    85.439692    -15582756    -15570318 
   60200    85.534316    -15582709    -15570257 
   60300    85.338055    -15582736    -15570313 
   60400    84.877817    -15582755    -15570399 
   60500    84.899513    -15582734    -15570375 
   60600    85.023737    -15582711    -15570334 
   60700    85.251414    -15582621    -15570211 
   60800    84.874358    -15582751    -15570395 
   60900    85.152496    -15582764    -15570368 
   61000    84.838004    -15582762    -15570411 
   61100    84.484759    -15582651    -15570351 
   61200    84.573123    -15582692    -15570379 
   61300    85.237719    -15582707    -15570298 
   61400    85.455113    -15582695    -15570255 
   61500     85.23157    -15582620    -15570212 
   61600    84.846949    -15582690    -15570338 
   61700    85.089601    -15582711    -15570323 
   61800    85.042803    -15582671    -15570290 
   61900    85.190504    -15582727    -15570325 
   62000     85.10859    -15582717    -15570327 
   62100    85.345653    -15582791    -15570366 
   62200    84.835141    -15582715    -15570364 
   62300    84.964716    -15582758    -15570389 
   62400    84.879943    -15582657    -15570300 
   62500     85.09356    -15582742    -15570354 
   62600    84.789202    -15582715    -15570371 
   62700    85.013446    -15582744    -15570368 
   62800      85.2523    -15582749    -15570338 
   62900    85.288102    -15582687    -15570271 
   63000    84.715286    -15582704    -15570371 
   63100    85.432798    -15582742    -15570304 
   63200     85.04674    -15582640    -15570259 
   63300    85.394897    -15582667    -15570236 
   63400    85.481417    -15582655    -15570211 
   63500    84.923757    -15582640    -15570277 
   63600     84.35154    -15582636    -15570356 
   63700     84.72831    -15582723    -15570388 
   63800    84.880568    -15582759    -15570403 
   63900    85.257748    -15582734    -15570322 
   64000    84.768311    -15582717    -15570376 
   64100    84.658407    -15582677    -15570352 
   64200    85.259705    -15582736    -15570324 
   64300    85.231643    -15582657    -15570249 
   64400    85.119058    -15582640    -15570248 
   64500    85.112382    -15582616    -15570226 
   64600    84.831559    -15582548    -15570198 
   64700    84.895878    -15582654    -15570295 
   64800    84.708732    -15582674    -15570342 
   64900    85.167098    -15582719    -15570321 
   65000     85.20846    -15582646    -15570242 
   65100    85.083365    -15582716    -15570330 
   65200    84.990956    -15582680    -15570307 
   65300    85.136524    -15582716    -15570321 
   65400    84.674711    -15582694    -15570367 
   65500    85.031569    -15582731    -15570352 
   65600    84.717459    -15582748    -15570414 
   65700     84.64191    -15582722    -15570400 
   65800    84.951253    -15582767    -15570400 
   65900    85.003959    -15582773    -15570398 
   66000    84.149687    -15582730    -15570479 
   66100     84.50882    -15582713    -15570410 
   66200    85.408737    -15582744    -15570310 
   66300    85.414506    -15582688    -15570253 
   66400     84.80585    -15582764    -15570418 
   66500    85.015198    -15582577    -15570201 
   66600    85.192689    -15582724    -15570322 
   66700    85.025197    -15582728    -15570350 
   66800    85.218162    -15582741    -15570335 
   66900    84.739771    -15582694    -15570358 
   67000    84.959854    -15582704    -15570336 
   67100    84.946694    -15582778    -15570411 
   67200    84.775895    -15582707    -15570365 
   67300    85.128217    -15582710    -15570317 
   67400    84.882815    -15582733    -15570376 
   67500    85.052372    -15582766    -15570384 
   67600    84.772046    -15582644    -15570302 
   67700    85.232201    -15582690    -15570282 
   67800     85.32874    -15582663    -15570240 
   67900    85.262855    -15582655    -15570243 
   68000    85.440342    -15582715    -15570276 
   68100    85.264341    -15582619    -15570206 
   68200    84.997124    -15582758    -15570384 
   68300    84.908552    -15582749    -15570388 
   68400    85.726208    -15582663    -15570183 
   68500    85.175454    -15582703    -15570304 
   68600    84.937027    -15582746    -15570381 
   68700    84.656105    -15582731    -15570407 
   68800    85.195777    -15582653    -15570250 
   68900    85.213737    -15582683    -15570277 
   69000    84.762242    -15582800    -15570461 
   69100    85.101863    -15582752    -15570362 
   69200    84.755417    -15582750    -15570411 
   69300    84.917518    -15582760    -15570397 
   69400    85.061936    -15582763    -15570380 
   69500    84.569213    -15582707    -15570395 
   69600    84.864454    -15582774    -15570420 
   69700    85.375262    -15582765    -15570337 
   69800    85.265095    -15582728    -15570315 
   69900    85.392431    -15582761    -15570329 
   70000    84.822908    -15582709    -15570360 
   70100    84.722849    -15582705    -15570371 
   70200    85.426973    -15582809    -15570373 
   70300     85.20334    -15582793    -15570389 
   70400    85.018349    -15582751    -15570374 
   70500    85.052027    -15582701    -15570319 
   70600    85.195083    -15582725    -15570323 
   70700    85.204803    -15582778    -15570374 
   70800    84.183591    -15582679    -15570423 
   70900    85.376833    -15582781    -15570352 
   71000    85.003739    -15582725    -15570350 
   71100    85.178057    -15582734    -15570334 
   71200    85.037415    -15582712    -15570333 
   71300     84.59438    -15582675    -15570360 
   71400    85.409146    -15582756    -15570322 
   71500    85.579041    -15582751    -15570293 
   71600    85.135399    -15582748    -15570354 
   71700    84.974796    -15582675    -15570305 
   71800    85.259433    -15582658    -15570246 
   71900    85.626586    -15582696    -15570231 
   72000    84.941183    -15582714    -15570349 
   72100    84.992611    -15582635    -15570262 
   72200    85.203944    -15582722    -15570318 
   72300    84.792805    -15582697    -15570353 
   72400    84.792474    -15582656    -15570312 
   72500    84.728601    -15582711    -15570376 
   72600    84.567109    -15582758    -15570447 
   72700    84.568557    -15582693    -15570382 
   72800    85.017909    -15582665    -15570289 
   72900    85.065566    -15582665    -15570282 
   73000     84.54099    -15582737    -15570429 
   73100    84.621105    -15582770    -15570451 
   73200    85.127793    -15582671    -15570278 
   73300    84.823426    -15582704    -15570355 
   73400    85.075198    -15582734    -15570349 
   73500     84.87513    -15582636    -15570280 
   73600    85.215338    -15582693    -15570288 
   73700    85.004935    -15582715    -15570340 
   73800       85.407    -15582663    -15570230 
   73900    84.994024    -15582675    -15570302 
   74000    85.068291    -15582709    -15570325 
   74100    84.299088    -15582763    -15570491 
   74200    85.329888    -15582720    -15570298 
   74300    85.385099    -15582725    -15570295 
   74400    84.899503    -15582680    -15570321 
   74500     85.23198    -15582724    -15570316 
   74600    85.053036    -15582727    -15570345 
   74700    85.328755    -15582646    -15570224 
   74800     84.33945    -15582748    -15570470 
   74900    84.316644    -15582675    -15570400 
   75000    85.164973    -15582656    -15570258 
   75100    84.916452    -15582697    -15570335 
   75200    84.899487    -15582720    -15570360 
   75300    85.471846    -15582707    -15570264 
   75400     84.76915    -15582688    -15570347 
   75500     85.36926    -15582632    -15570204 
   75600    85.553556    -15582665    -15570210 
   75700    84.954997    -15582628    -15570260 
   75800    85.515666    -15582675    -15570226 
   75900     84.64702    -15582619    -15570296 
   76000    84.786642    -15582672    -15570329 
   76100    85.068227    -15582659    -15570275 
   76200    84.481947    -15582580    -15570281 
   76300    84.962472    -15582637    -15570268 
   76400    84.880943    -15582607    -15570250 
   76500    85.111321    -15582640    -15570250 
   76600    85.062444    -15582598    -15570215 
   76700    85.311244    -15582640    -15570221 
   76800    84.931299    -15582697    -15570333 
   76900    84.839905    -15582648    -15570297 
   77000    84.725423    -15582618    -15570284 
   77100    85.064709    -15582679    -15570296 
   77200    84.728504    -15582625    -15570291 
   77300    84.997761    -15582691    -15570317 
   77400    84.643273    -15582623    -15570301 
   77500    85.167134    -15582678    -15570280 
   77600    85.064502    -15582724    -15570340 
   77700     84.73586    -15582641    -15570305 
   77800    85.158286    -15582677    -15570280 
   77900     84.74353    -15582644    -15570307 
   78000    84.888094    -15582699    -15570341 
   78100    84.759113    -15582677    -15570338 
   78200    84.949445    -15582678    -15570311 
   78300    84.874694    -15582615    -15570259 
   78400    85.550864    -15582691    -15570237 
   78500    85.216556    -15582665    -15570259 
   78600    85.473319    -15582646    -15570203 
   78700    84.675896    -15582647    -15570320 
   78800    84.732902    -15582647    -15570311 
   78900    84.881228    -15582651    -15570294 
   79000    84.992644    -15582625    -15570252 
   79100    85.200681    -15582637    -15570233 
   79200    84.747866    -15582554    -15570216 
   79300    85.376974    -15582632    -15570203 
   79400     84.98992    -15582595    -15570222 
   79500    85.067712    -15582603    -15570219 
   79600    84.714174    -15582586    -15570253 
   79700    84.744037    -15582584    -15570247 
   79800    84.692835    -15582665    -15570335 
   79900    84.578284    -15582557    -15570244 
   80000    84.900608    -15582582    -15570222 
   80100    84.863742    -15582595    -15570240 
   80200    85.751123    -15582611    -15570127 
   80300    84.573569    -15582639    -15570327 
   80400    84.769009    -15582569    -15570228 
   80500    85.373512    -15582646    -15570217 
   80600    85.518346    -15582589    -15570140 
   80700    84.779341    -15582638    -15570296 
   80800    84.995003    -15582541    -15570167 
   80900    85.106611    -15582527    -15570137 
   81000    85.380124    -15582575    -15570145 
   81100    85.532793    -15582626    -15570175 
   81200    85.003571    -15582609    -15570234 
   81300    84.698409    -15582582    -15570251 
   81400      84.8926    -15582628    -15570269 
   81500     85.36621    -15582606    -15570178 
   81600    85.226377    -15582561    -15570154 
   81700     85.42075    -15582497    -15570062 
   81800    84.888858    -15582534    -15570176 
   81900    85.144584    -15582520    -15570125 
   82000     84.71602    -15582574    -15570242 
   82100    84.760999    -15582598    -15570259 
   82200     85.01869    -15582539    -15570162 
   82300    84.772703    -15582528    -15570187 
   82400    84.923433    -15582540    -15570176 
   82500    84.941633    -15582596    -15570230 
   82600    85.320897    -15582600    -15570179 
   82700    85.194112    -15582563    -15570160 
   82800    85.044169    -15582631    -15570250 
   82900     85.54002    -15582545    -15570093 
   83000    84.831764    -15582609    -15570259 
   83100    84.747746    -15582615    -15570277 
   83200    84.816414    -15582618    -15570270 
   83300    84.732344    -15582649    -15570313 
   83400    85.781415    -15582624    -15570136 
   83500    85.270805    -15582608    -15570194 
   83600    84.903193    -15582636    -15570276 
   83700    84.782562    -15582583    -15570240 
   83800    84.655995    -15582607    -15570283 
   83900    84.775809    -15582522    -15570180 
   84000    84.956621    -15582700    -15570332 
   84100    84.538124    -15582620    -15570313 
   84200    84.482186    -15582674    -15570375 
   84300     84.46031    -15582620    -15570325 
   84400    84.746361    -15582604    -15570266 
   84500    85.092398    -15582717    -15570329 
   84600    84.751833    -15582628    -15570290 
   84700    84.611695    -15582676    -15570358 
   84800     84.66412    -15582678    -15570353 
   84900    84.991095    -15582660    -15570287 
   85000    85.245451    -15582686    -15570276 
   85100      85.0708    -15582692    -15570308 
   85200    84.951785    -15582674    -15570307 
   85300    85.138993    -15582670    -15570276 
   85400    85.076193    -15582661    -15570276 
   85500    84.452643    -15582668    -15570374 
   85600    85.237384    -15582692    -15570283 
   85700    84.970391    -15582648    -15570278 
   85800     85.38027    -15582649    -15570219 
   85900    84.397877    -15582605    -15570318 
   86000    84.602267    -15582630    -15570313 
   86100    84.794864    -15582649    -15570304 
   86200    84.968518    -15582739    -15570369 
   86300    84.840901    -15582669    -15570318 
   86400    85.196612    -15582687    -15570284 
   86500    85.182514    -15582686    -15570285 
   86600    85.014738    -15582706    -15570330 
   86700    85.031995    -15582647    -15570268 
   86800    85.053361    -15582641    -15570259 
   86900     85.20196    -15582638    -15570234 
   87000     85.25946    -15582708    -15570296 
   87100    85.133733    -15582702    -15570308 
   87200    85.442248    -15582734    -15570295 
   87300    84.917903    -15582704    -15570342 
   87400    84.998982    -15582758    -15570384 
   87500    84.459918    -15582646    -15570350 
   87600    85.417623    -15582795    -15570360 
   87700    84.360134    -15582700    -15570419 
   87800    84.456426    -15582723    -15570428 
   87900    85.077437    -15582742    -15570356 
   88000    84.576259    -15582750    -15570438 
   88100    84.886799    -15582745    -15570387 
   88200    85.578119    -15582689    -15570231 
   88300     84.77243    -15582751    -15570410 
   88400    85.008175    -15582722    -15570347 
   88500    84.841986    -15582790    -15570438 
   88600    85.013129    -15582772    -15570396 
   88700    84.872618    -15582688    -15570332 
   88800    84.441189    -15582782    -15570490 
   88900    84.951096    -15582696    -15570329 
   89000    85.597185    -15582676    -15570214 
   89100    85.444912    -15582778    -15570339 
   89200    85.173084    -15582696    -15570297 
   89300     84.95044    -15582651    -15570284 
   89400     85.04706    -15582685    -15570304 
   89500    85.098525    -15582728    -15570339 
   89600    84.887323    -15582700    -15570342 
   89700    85.068012    -15582690    -15570306 
   89800    85.582443    -15582752    -15570293 
   89900    85.371358    -15582693    -15570265 
   90000    84.523617    -15582763    -15570458 
   90100    85.211524    -15582655    -15570250 
   90200    85.178491    -15582798    -15570397 
   90300    84.974176    -15582792    -15570422 
   90400    84.365117    -15582644    -15570363 
   90500    84.783749    -15582673    -15570330 
   90600    84.750578    -15582744    -15570406 
   90700     84.90883    -15582609    -15570248 
   90800    84.749594    -15582742    -15570404 
   90900    85.072925    -15582763    -15570378 
   91000    85.106292    -15582690    -15570300 
   91100     84.67228    -15582733    -15570406 
   91200    85.318398    -15582719    -15570298 
   91300    85.211908    -15582713    -15570308 
   91400     85.22531    -15582701    -15570294 
   91500    85.010475    -15582684    -15570308 
   91600    84.872629    -15582677    -15570322 
   91700    85.748346    -15582717    -15570234 
   91800    85.268145    -15582666    -15570253 
   91900    85.290099    -15582743    -15570326 
   92000    85.028349    -15582697    -15570318 
   92100    85.415298    -15582614    -15570179 
   92200    84.513025    -15582668    -15570364 
   92300    84.411814    -15582717    -15570428 
   92400    85.654839    -15582688    -15570218 
   92500    84.661221    -15582644    -15570319 
   92600    84.498687    -15582668    -15570367 
   92700    85.138722    -15582612    -15570218 
   92800    85.272362    -15582738    -15570324 
   92900     84.63988    -15582726    -15570405 
   93000    84.691889    -15582666    -15570337 
   93100    84.733486    -15582698    -15570363 
   93200    84.983673    -15582641    -15570269 
   93300    85.261807    -15582707    -15570294 
   93400    84.997674    -15582685    -15570311 
   93500    84.699239    -15582699    -15570369 
   93600    85.348709    -15582610    -15570185 
   93700    85.397304    -15582700    -15570268 
   93800     84.55438    -15582648    -15570338 
   93900    85.221383    -15582701    -15570294 
   94000    84.774349    -15582712    -15570371 
   94100    84.745295    -15582678    -15570340 
   94200     84.65335    -15582745    -15570421 
   94300    85.031873    -15582704    -15570325 
   94400    84.963583    -15582695    -15570326 
   94500    84.853967    -15582771    -15570418 
   94600    85.851602    -15582710    -15570212 
   94700    84.713961    -15582759    -15570426 
   94800    85.111714    -15582748    -15570358 
   94900    85.045483    -15582688    -15570307 
   95000    85.554717    -15582697    -15570242 
   95100    84.351308    -15582691    -15570411 
   95200    84.542275    -15582713    -15570405 
   95300    85.197572    -15582620    -15570217 
   95400    84.961541    -15582740    -15570371 
   95500    84.808413    -15582713    -15570366 
   95600    84.985051    -15582701    -15570329 
   95700    85.316243    -15582695    -15570275 
   95800    85.174872    -15582691    -15570291 
   95900    85.251817    -15582589    -15570178 
   96000    85.083936    -15582705    -15570319 
   96100    85.090532    -15582651    -15570263 
   96200     85.17253    -15582673    -15570274 
   96300    85.153569    -15582613    -15570216 
   96400    84.881849    -15582712    -15570355 
   96500    84.993504    -15582673    -15570300 
   96600    84.499441    -15582689    -15570388 
   96700    84.855496    -15582673    -15570320 
   96800    84.557247    -15582731    -15570422 
   96900    84.856012    -15582659    -15570306 
   97000    85.186183    -15582654    -15570253 
   97100    85.230927    -15582703    -15570295 
   97200    85.096745    -15582697    -15570309 
   97300    85.343817    -15582617    -15570193 
   97400    85.368698    -15582741    -15570313 
   97500    84.693106    -15582689    -15570359 
   97600    84.666264    -15582630    -15570305 
   97700    84.818757    -15582649    -15570301 
   97800    85.623158    -15582710    -15570245 
   97900    85.110204    -15582664    -15570274 
   98000     85.45909    -15582691    -15570250 
   98100    84.986842    -15582653    -15570280 
   98200     85.32692    -15582639    -15570217 
   98300    85.215319    -15582612    -15570206 
   98400    84.628921    -15582689    -15570368 
   98500    85.051298    -15582744    -15570362 
   98600    84.753065    -15582688    -15570350 
   98700    84.935983    -15582640    -15570275 
   98800    84.868005    -15582660    -15570304 
   98900    85.045003    -15582638    -15570257 
   99000    85.395404    -15582705    -15570273 
   99100    85.161389    -15582727    -15570329 
   99200    85.102839    -15582669    -15570280 
   99300    85.393014    -15582717    -15570286 
   99400     85.16508    -15582749    -15570351 
   99500    84.871798    -15582654    -15570299 
   99600    85.052415    -15582763    -15570381 
   99700    84.954352    -15582712    -15570345 
   99800    85.518178    -15582794    -15570344 
   99900    85.517682    -15582747    -15570297 
  100000    85.100353    -15582716    -15570327 
  100100    85.062944    -15582736    -15570352 
  100200    85.209291    -15582602    -15570197 
  100300    85.238363    -15582673    -15570264 
  100400    84.816959    -15582638    -15570290 
  100500    84.985531    -15582726    -15570354 
  100600     85.55158    -15582665    -15570211 
  100700    84.639429    -15582617    -15570295 
  100800    84.946062    -15582664    -15570298 
  100900    85.230233    -15582660    -15570252 
  101000    84.617636    -15582705    -15570386 
  101100    85.114825    -15582604    -15570213 
  101200    85.705815    -15582720    -15570243 
  101300    85.428366    -15582704    -15570267 
  101400    85.265207    -15582679    -15570266 
  101500    85.049372    -15582635    -15570253 
  101600    85.458557    -15582651    -15570210 
  101700    84.294417    -15582727    -15570456 
  101800    84.877104    -15582745    -15570389 
  101900    85.732627    -15582732    -15570251 
  102000    85.459318    -15582704    -15570262 
  102100    84.497489    -15582691    -15570390 
  102200    85.074111    -15582641    -15570255 
  102300    84.960577    -15582701    -15570333 
  102400    85.434525    -15582600    -15570162 
  102500    85.302826    -15582636    -15570218 
  102600    84.841973    -15582748    -15570396 
  102700    84.744449    -15582672    -15570335 
  102800    85.123419    -15582748    -15570356 
  102900    85.157316    -15582679    -15570282 
  103000    84.601044    -15582715    -15570399 
  103100    84.921655    -15582655    -15570293 
  103200     85.21681    -15582615    -15570209 
  103300    84.796268    -15582675    -15570330 
  103400    85.117587    -15582707    -15570316 
  103500    85.091406    -15582731    -15570343 
  103600    84.781418    -15582643    -15570300 
  103700    85.075248    -15582702    -15570317 
  103800    84.597991    -15582710    -15570394 
  103900    85.414893    -15582628    -15570193 
  104000    85.042815    -15582650    -15570269 
  104100    85.324091    -15582631    -15570210 
  104200    84.918364    -15582583    -15570221 
  104300    84.763586    -15582660    -15570320 
  104400    84.447998    -15582643    -15570349 
  104500    84.675723    -15582668    -15570341 
  104600    85.004002    -15582626    -15570251 
  104700    85.243633    -15582610    -15570200 
  104800     85.00965    -15582684    -15570308 
  104900    85.381771    -15582591    -15570161 
  105000    85.108378    -15582636    -15570246 
  105100    85.310643    -15582640    -15570220 
  105200    84.702543    -15582597    -15570266 
  105300    85.379872    -15582583    -15570153 
  105400    85.067882    -15582659    -15570274 
  105500    85.345979    -15582648    -15570223 
  105600    85.360649    -15582653    -15570227 
  105700    84.844863    -15582602    -15570250 
  105800    84.603201    -15582595    -15570279 
  105900     86.05824    -15582581    -15570052 
  106000    84.802347    -15582613    -15570268 
  106100    84.725859    -15582657    -15570323 
  106200    84.471701    -15582648    -15570350 
  106300    85.102379    -15582664    -15570275 
  106400    85.051573    -15582599    -15570217 
  106500    84.801859    -15582656    -15570310 
  106600    85.059186    -15582696    -15570313 
  106700    85.370718    -15582703    -15570274 
  106800    85.089417    -15582682    -15570295 
  106900    85.121589    -15582621    -15570229 
  107000    84.728117    -15582648    -15570313 
  107100    85.112128    -15582675    -15570285 
  107200    85.154723    -15582704    -15570307 
  107300    84.916595    -15582661    -15570299 
  107400    85.027245    -15582696    -15570318 
  107500    85.254928    -15582616    -15570204 
  107600    85.498362    -15582651    -15570204 
  107700    84.872511    -15582660    -15570305 
  107800     84.91939    -15582713    -15570351 
  107900    84.487444    -15582661    -15570361 
  108000    84.925808    -15582558    -15570194 
  108100    85.063592    -15582651    -15570268 
  108200    85.292591    -15582665    -15570248 
  108300     84.83439    -15582628    -15570277 
  108400    84.818256    -15582610    -15570262 
  108500    85.144153    -15582564    -15570169 
  108600    84.650662    -15582634    -15570311 
  108700    84.423634    -15582640    -15570350 
  108800    84.713756    -15582561    -15570228 
  108900    84.917121    -15582638    -15570276 
  109000    84.665019    -15582676    -15570350 
  109100    85.071769    -15582691    -15570306 
  109200    85.134361    -15582660    -15570266 
  109300    84.640747    -15582634    -15570312 
  109400    85.051141    -15582702    -15570321 
  109500    84.887893    -15582661    -15570303 
  109600    84.434471    -15582549    -15570257 
  109700    85.222449    -15582681    -15570275 
  109800    85.448908    -15582691    -15570251 
  109900    85.554986    -15582571    -15570116 
  110000    84.799756    -15582649    -15570304 
  110100    85.553381    -15582694    -15570239 
  110200    85.176948    -15582598    -15570198 
  110300    84.559419    -15582635    -15570325 
  110400    84.870692    -15582670    -15570314 
  110500     84.41669    -15582702    -15570413 
  110600    84.855535    -15582694    -15570341 
  110700    85.216296    -15582649    -15570244 
  110800    85.338916    -15582582    -15570159 
  110900    84.866771    -15582713    -15570358 
  111000     84.80618    -15582694    -15570348 
  111100    84.608456    -15582712    -15570395 
  111200    84.886521    -15582707    -15570349 
  111300    84.912396    -15582761    -15570400 
  111400    85.211659    -15582686    -15570281 
  111500    85.126554    -15582704    -15570312 
  111600    85.086445    -15582669    -15570282 
  111700    84.658947    -15582662    -15570338 
  111800     85.00481    -15582666    -15570291 
  111900    84.974463    -15582648    -15570278 
  112000    85.062557    -15582729    -15570346 
  112100    85.729969    -15582699    -15570218 
  112200    85.205285    -15582693    -15570289 
  112300    85.271483    -15582700    -15570286 
  112400    84.777795    -15582747    -15570405 
  112500    85.292258    -15582786    -15570369 
  112600    85.093888    -15582780    -15570392 
  112700    85.347048    -15582794    -15570369 
  112800    84.876776    -15582706    -15570350 
  112900    84.934053    -15582717    -15570353 
  113000    84.565108    -15582670    -15570359 
  113100    84.847905    -15582713    -15570361 
  113200    85.027779    -15582731    -15570352 
  113300    85.298589    -15582775    -15570358 
  113400    85.137888    -15582782    -15570387 
  113500    84.476419    -15582754    -15570456 
  113600    85.138527    -15582718    -15570323 
  113700    84.981494    -15582791    -15570419 
  113800    84.546508    -15582772    -15570464 
  113900    84.485227    -15582766    -15570467 
  114000    84.888894    -15582757    -15570399 
  114100    85.244372    -15582709    -15570299 
  114200    85.644164    -15582721    -15570253 
  114300    84.790257    -15582798    -15570454 
  114400    84.615721    -15582818    -15570500 
  114500    84.894074    -15582805    -15570446 
  114600    84.685265    -15582762    -15570434 
  114700    85.170838    -15582771    -15570372 
  114800    85.454572    -15582740    -15570300 
  114900    84.830855    -15582816    -15570466 
  115000    85.014459    -15582761    -15570384 
  115100    83.878719    -15582749    -15570538 
  115200    84.780437    -15582738    -15570396 
  115300    85.463336    -15582782    -15570341 
  115400    85.170776    -15582817    -15570418 
  115500    85.295959    -15582794    -15570377 
  115600    84.741006    -15582718    -15570382 
  115700    84.924294    -15582743    -15570380 
  115800    84.861129    -15582791    -15570437 
  115900     84.53949    -15582765    -15570458 
  116000    85.247502    -15582765    -15570355 
  116100     85.02515    -15582752    -15570375 
  116200    85.413744    -15582703    -15570269 
  116300    85.327444    -15582731    -15570309 
  116400    84.992457    -15582751    -15570378 
  116500    85.371984    -15582758    -15570330 
  116600    84.617921    -15582777    -15570459 
  116700    84.841051    -15582785    -15570433 
  116800    85.287952    -15582714    -15570298 
  116900    85.278411    -15582816    -15570401 
  117000    85.241319    -15582815    -15570406 
  117100    84.608274    -15582780    -15570462 
  117200    84.800766    -15582816    -15570471 
  117300    85.223682    -15582667    -15570261 
  117400    85.046719    -15582800    -15570419 
  117500     84.96169    -15582722    -15570354 
  117600     84.75094    -15582782    -15570444 
  117700    85.381322    -15582833    -15570403 
  117800    85.197811    -15582772    -15570369 
  117900     84.98351    -15582739    -15570367 
  118000    85.413713    -15582719    -15570284 
  118100    85.438672    -15582786    -15570348 
  118200    85.009404    -15582788    -15570412 
  118300    85.319256    -15582746    -15570326 
  118400    84.533465    -15582790    -15570483 
  118500    84.716486    -15582650    -15570317 
  118600    84.960545    -15582758    -15570390 
  118700    85.224841    -15582776    -15570369 
  118800    85.147889    -15582753    -15570357 
  118900    84.777889    -15582736    -15570394 
  119000    85.542525    -15582747    -15570293 
  119100    84.453345    -15582789    -15570494 
  119200    85.277837    -15582731    -15570317 
  119300    85.594307    -15582758    -15570297 
  119400    85.260707    -15582707    -15570295 
  119500    84.956128    -15582691    -15570323 
  119600    85.262517    -15582752    -15570340 
  119700    84.690282    -15582676    -15570346 
  119800    84.686659    -15582724    -15570395 
  119900    84.861431    -15582739    -15570385 
  120000    84.905698    -15582767    -15570407 
  120100    85.277001    -15582665    -15570250 
  120200     85.08606    -15582790    -15570404 
  120300     84.96112    -15582775    -15570406 
  120400    84.957088    -15582721    -15570353 
  120500    84.759254    -15582726    -15570387 
  120600     84.63035    -15582716    -15570396 
  120700    84.572371    -15582717    -15570405 
  120800    85.410609    -15582620    -15570186 
  120900    85.175238    -15582645    -15570245 
  121000     85.12432    -15582668    -15570276 
  121100    84.528558    -15582733    -15570427 
  121200    84.628402    -15582664    -15570344 
  121300    85.743412    -15582652    -15570169 
  121400     85.33269    -15582686    -15570263 
  121500    85.272145    -15582678    -15570264 
  121600    84.901009    -15582623    -15570264 
  121700     85.25351    -15582625    -15570214 
  121800    84.981645    -15582636    -15570264 
  121900    84.470263    -15582639    -15570341 
  122000    84.549198    -15582634    -15570325 
  122100    84.444258    -15582603    -15570309 
  122200    85.010343    -15582663    -15570287 
  122300    84.701343    -15582649    -15570318 
  122400     85.19779    -15582676    -15570272 
  122500    84.402325    -15582728    -15570441 
  122600    85.358748    -15582674    -15570247 
  122700     85.23038    -15582624    -15570216 
  122800     84.74916    -15582649    -15570311 
  122900    84.742948    -15582721    -15570384 
  123000    85.229193    -15582656    -15570248 
  123100    85.179242    -15582655    -15570254 
  123200     85.19582    -15582615    -15570213 
  123300    84.672233    -15582595    -15570269 
  123400     84.63345    -15582599    -15570278 
  123500      84.7424    -15582626    -15570289 
  123600    85.068514    -15582638    -15570253 
  123700     84.91034    -15582572    -15570211 
  123800    85.044351    -15582604    -15570223 
  123900    84.649737    -15582626    -15570303 
  124000    85.172067    -15582710    -15570310 
  124100     84.74463    -15582624    -15570287 
  124200    84.902469    -15582611    -15570251 
  124300    85.326706    -15582576    -15570154 
  124400    84.440566    -15582553    -15570260 
  124500    85.632718    -15582609    -15570143 
  124600    84.876855    -15582581    -15570225 
  124700     84.79808    -15582518    -15570174 
  124800    85.321194    -15582563    -15570142 
  124900    85.090102    -15582567    -15570180 
  125000    84.978612    -15582544    -15570173 
  125100    84.603757    -15582583    -15570266 
  125200     84.91522    -15582493    -15570131 
  125300    84.622802    -15582611    -15570292 
  125400    84.632694    -15582617    -15570297 
  125500    85.307475    -15582534    -15570115 
  125600    84.336378    -15582588    -15570310 
  125700    85.080121    -15582586    -15570200 
  125800     84.79472    -15582671    -15570327 
  125900    85.434238    -15582552    -15570114 
  126000    84.912167    -15582591    -15570229 
  126100    84.808415    -15582595    -15570248 
  126200    84.984402    -15582516    -15570144 
  126300    85.227565    -15582492    -15570085 
  126400    84.830848    -15582524    -15570174 
  126500    85.371315    -15582575    -15570146 
  126600    84.675626    -15582518    -15570191 
  126700    84.533207    -15582485    -15570179 
  126800    84.680268    -15582549    -15570221 
  126900    84.821134    -15582489    -15570141 
  127000    84.811116    -15582559    -15570212 
  127100    84.711486    -15582518    -15570186 
  127200     85.67324    -15582472    -15569999 
  127300    84.967224    -15582611    -15570242 
  127400    85.404733    -15582529    -15570096 
  127500    85.112241    -15582488    -15570098 
  127600    85.583607    -15582506    -15570047 
  127700    84.638571    -15582596    -15570275 
  127800    84.691353    -15582529    -15570200 
  127900    84.944519    -15582551    -15570185 
  128000    84.954305    -15582551    -15570183 
  128100    84.950525    -15582476    -15570109 
  128200     84.54219    -15582468    -15570161 
  128300    85.402878    -15582464    -15570031 
  128400    85.207481    -15582573    -15570169 
  128500    84.903424    -15582500    -15570140 
  128600    85.201032    -15582463    -15570060 
  128700    84.821106    -15582489    -15570141 
  128800    84.745225    -15582514    -15570177 
  128900    85.093716    -15582533    -15570145 
  129000    85.010513    -15582523    -15570147 
  129100    85.258551    -15582604    -15570193 
  129200    84.699168    -15582599    -15570268 
  129300    85.330659    -15582587    -15570165 
  129400    84.708742    -15582559    -15570227 
  129500    85.533683    -15582556    -15570104 
  129600     84.42469    -15582624    -15570334 
  129700    84.727018    -15582624    -15570290 
  129800    84.471741    -15582566    -15570268 
  129900    85.132636    -15582586    -15570192 
  130000    84.912507    -15582551    -15570189 
  130100    85.478684    -15582587    -15570143 
  130200    85.325044    -15582587    -15570165 
  130300    85.219327    -15582598    -15570192 
  130400    84.905248    -15582636    -15570275 
  130500    85.355818    -15582612    -15570186 
  130600    84.885891    -15582636    -15570278 
  130700     84.70716    -15582602    -15570270 
  130800    84.943169    -15582616    -15570250 
  130900    85.378194    -15582583    -15570154 
  131000    85.064214    -15582610    -15570226 
  131100    85.286048    -15582603    -15570187 
  131200    84.790575    -15582603    -15570260 
  131300    85.139956    -15582655    -15570260 
  131400    85.306035    -15582572    -15570153 
  131500    85.584597    -15582678    -15570219 
  131600    85.629742    -15582685    -15570219 
  131700    85.622438    -15582695    -15570230 
  131800    84.733063    -15582638    -15570303 
  131900    84.623049    -15582709    -15570390 
  132000     85.28763    -15582663    -15570247 
  132100    85.197796    -15582728    -15570325 
  132200    84.867711    -15582743    -15570388 
  132300    85.280756    -15582783    -15570368 
  132400    85.224667    -15582732    -15570325 
  132500    85.172428    -15582770    -15570371 
  132600    85.036551    -15582692    -15570312 
  132700    85.310002    -15582757    -15570338 
  132800    85.048841    -15582756    -15570375 
  132900    85.068961    -15582753    -15570369 
  133000    84.642074    -15582774    -15570452 
  133100    84.769741    -15582785    -15570444 
  133200    84.920339    -15582729    -15570366 
  133300    84.776267    -15582740    -15570399 
  133400    84.891554    -15582729    -15570370 
  133500    85.223795    -15582746    -15570340 
  133600    84.994988    -15582841    -15570467 
  133700    84.257474    -15582750    -15570484 
  133800    84.840404    -15582690    -15570339 
  133900    85.104364    -15582797    -15570408 
  134000    85.322634    -15582839    -15570418 
  134100    85.050206    -15582814    -15570433 
  134200    84.786353    -15582744    -15570400 
  134300    85.554319    -15582812    -15570357 
  134400     85.07647    -15582759    -15570374 
  134500    85.254659    -15582847    -15570436 
  134600    84.697784    -15582756    -15570426 
  134700    85.333328    -15582767    -15570344 
  134800    84.885757    -15582831    -15570473 
  134900    84.994215    -15582770    -15570397 
  135000    85.040888    -15582809    -15570429 
  135100    84.467043    -15582747    -15570451 
  135200    84.897582    -15582805    -15570446 
  135300    84.901949    -15582679    -15570319 
  135400    85.410637    -15582835    -15570401 
  135500    84.715621    -15582774    -15570441 
  135600    84.754587    -15582850    -15570511 
  135700    84.288783    -15582784    -15570514 
  135800     84.39522    -15582771    -15570484 
  135900    85.165334    -15582794    -15570396 
  136000    85.386991    -15582792    -15570362 
  136100    85.090799    -15582789    -15570402 
  136200    84.926837    -15582787    -15570424 
  136300    84.986228    -15582846    -15570474 
  136400    84.232247    -15582780    -15570517 
  136500    84.882065    -15582820    -15570463 
  136600    84.701289    -15582765    -15570434 
  136700    84.854463    -15582781    -15570428 
  136800    85.128906    -15582737    -15570344 
  136900    85.144762    -15582664    -15570268 
  137000    84.927614    -15582736    -15570372 
  137100    85.191553    -15582698    -15570296 
  137200    85.573861    -15582672    -15570215 
  137300    85.207643    -15582660    -15570256 
  137400    85.195212    -15582610    -15570207 
  137500    85.114933    -15582698    -15570307 
  137600     84.83594    -15582711    -15570361 
  137700    84.547258    -15582702    -15570394 
  137800    84.984838    -15582719    -15570347 
  137900    85.621857    -15582696    -15570232 
  138000      84.5492    -15582700    -15570391 
  138100    84.604448    -15582674    -15570358 
  138200    85.030941    -15582682    -15570303 
  138300    85.637654    -15582617    -15570150 
  138400     85.39022    -15582631    -15570200 
  138500    84.897551    -15582545    -15570185 
  138600    84.986568    -15582667    -15570294 
  138700    85.184154    -15582542    -15570141 
  138800    85.398513    -15582547    -15570115 
  138900    84.949877    -15582609    -15570242 
  139000     84.64056    -15582628    -15570306 
  139100    84.214942    -15582578    -15570318 
  139200    84.435076    -15582571    -15570279 
  139300    85.095611    -15582537    -15570149 
  139400    85.124715    -15582455    -15570063 
  139500    85.214991    -15582582    -15570177 
  139600    85.082837    -15582589    -15570202 
  139700    85.470986    -15582608    -15570165 
  139800     84.86653    -15582534    -15570180 
  139900    84.684546    -15582497    -15570169 
  140000     85.01294    -15582555    -15570178 
  140100    84.682319    -15582488    -15570160 
  140200    84.770129    -15582476    -15570135 
  140300    85.365446    -15582563    -15570136 
  140400    85.506683    -15582430    -15569982 
  140500    84.652623    -15582502    -15570178 
  140600     84.80266    -15582565    -15570220 
  140700    85.036882    -15582571    -15570191 
  140800    84.988387    -15582517    -15570145 
  140900    85.397049    -15582629    -15570197 
  141000     85.00086    -15582502    -15570127 
  141100    85.263805    -15582538    -15570125 
  141200    85.106395    -15582495    -15570105 
  141300    84.987993    -15582517    -15570144 
  141400    85.709753    -15582594    -15570116 
  141500    84.807566    -15582572    -15570226 
  141600     84.72621    -15582564    -15570229 
  141700    85.118149    -15582543    -15570152 
  141800     85.03945    -15582547    -15570167 
  141900    85.539994    -15582459    -15570006 
  142000    85.118212    -15582499    -15570107 
  142100    84.541579    -15582536    -15570228 
  142200    85.114087    -15582460    -15570069 
  142300    84.869158    -15582526    -15570171 
  142400    84.253294    -15582520    -15570254 
  142500    85.354678    -15582556    -15570130 
  142600    85.180303    -15582540    -15570140 
  142700     85.37574    -15582508    -15570079 
  142800    84.668067    -15582530    -15570204 
  142900    85.215567    -15582547    -15570141 
  143000    85.296459    -15582563    -15570146 
  143100    85.825938    -15582484    -15569989 
  143200     85.05147    -15582616    -15570235 
  143300    85.402795    -15582484    -15570051 
  143400    85.038619    -15582580    -15570200 
  143500    85.357923    -15582477    -15570050 
  143600    84.740726    -15582556    -15570220 
  143700    84.985568    -15582539    -15570167 
  143800    84.866682    -15582583    -15570228 
  143900    85.387171    -15582522    -15570091 
  144000    85.377706    -15582597    -15570168 
  144100    84.972087    -15582599    -15570228 
  144200    85.132265    -15582633    -15570240 
  144300    85.273838    -15582617    -15570203 
  144400    85.548454    -15582568    -15570114 
  144500    85.355866    -15582594    -15570168 
  144600    85.179887    -15582576    -15570175 
  144700    84.795864    -15582623    -15570278 
  144800    84.442418    -15582563    -15570270 
  144900    85.283441    -15582696    -15570280 
  145000    84.964958    -15582629    -15570260 
  145100    85.024439    -15582655    -15570277 
  145200    84.935535    -15582663    -15570299 
  145300    85.092552    -15582633    -15570245 
  145400    85.423058    -15582653    -15570217 
  145500    85.001033    -15582649    -15570275 
  145600    84.733284    -15582622    -15570287 
  145700    85.006015    -15582642    -15570267 
  145800    84.877813    -15582582    -15570226 
  145900    85.196434    -15582665    -15570262 
  146000    85.277704    -15582672    -15570257 
  146100    85.711864    -15582655    -15570177 
  146200    85.574963    -15582654    -15570196 
  146300    85.520736    -15582639    -15570189 
  146400    84.504201    -15582651    -15570349 
  146500    85.602211    -15582649    -15570187 
  146600    85.045955    -15582655    -15570274 
  146700     84.82021    -15582659    -15570311 
  146800    85.186419    -15582715    -15570313 
  146900    84.962946    -15582708    -15570339 
  147000    84.493916    -15582692    -15570391 
  147100    85.042358    -15582742    -15570362 
  147200    85.119414    -15582726    -15570334 
  147300    84.824414    -15582724    -15570375 
  147400    85.015115    -15582713    -15570337 
  147500    85.218817    -15582847    -15570441 
  147600    85.038029    -15582765    -15570385 
  147700    84.704283    -15582743    -15570412 
  147800    84.634628    -15582684    -15570362 
  147900    85.204025    -15582777    -15570373 
  148000    85.059749    -15582720    -15570337 
  148100    85.065372    -15582695    -15570311 
  148200    84.661165    -15582664    -15570339 
  148300    85.723841    -15582665    -15570185 
  148400    85.193914    -15582652    -15570250 
  148500    84.955899    -15582729    -15570361 
  148600    85.519139    -15582763    -15570313 
  148700    85.420736    -15582755    -15570319 
  148800    84.419282    -15582679    -15570389 
  148900    84.850173    -15582784    -15570432 
  149000    84.583715    -15582775    -15570462 
  149100     84.84547    -15582672    -15570321 
  149200    85.171151    -15582776    -15570376 
  149300    85.442692    -15582745    -15570306 
  149400    85.443439    -15582719    -15570280 
  149500    85.587081    -15582702    -15570242 
  149600    85.100747    -15582716    -15570327 
  149700    85.185301    -15582686    -15570285 
  149800     84.58491    -15582762    -15570448 
  149900    85.305103    -15582688    -15570269 
  150000    85.484545    -15582724    -15570279 
  150100    85.562582    -15582614    -15570158 
  150200    84.773928    -15582703    -15570362 
  150300    84.592304    -15582833    -15570518 
  150400    84.600414    -15582732    -15570415 
  150500      84.5225    -15582759    -15570454 
  150600    84.674549    -15582717    -15570390 
  150700    85.364532    -15582705    -15570278 
  150800     84.54723    -15582656    -15570348 
  150900    84.273725    -15582718    -15570449 
  151000    85.283692    -15582706    -15570290 
  151100    84.503463    -15582723    -15570421 
  151200      85.3765    -15582779    -15570350 
  151300     85.07926    -15582655    -15570269 
  151400    84.872791    -15582721    -15570365 
  151500    85.193961    -15582754    -15570352 
  151600    85.319901    -15582699    -15570278 
  151700    85.480814    -15582749    -15570305 
  151800    84.975801    -15582822    -15570451 
  151900    83.987295    -15582772    -15570545 
  152000    85.481796    -15582715    -15570271 
  152100    84.342027    -15582708    -15570430 
  152200    84.961778    -15582744    -15570375 
  152300    85.029939    -15582738    -15570359 
  152400    84.591093    -15582732    -15570417 
  152500    84.474602    -15582751    -15570454 
  152600    84.997935    -15582686    -15570312 
  152700    85.078849    -15582654    -15570269 
  152800    84.745488    -15582641    -15570304 
  152900      85.0334    -15582634    -15570254 
  153000    84.758771    -15582568    -15570229 
  153100    84.745873    -15582604    -15570267 
  153200    84.690253    -15582599    -15570270 
  153300    84.725221    -15582652    -15570318 
  153400    84.740088    -15582692    -15570355 
  153500    85.041233    -15582666    -15570286 
  153600    84.824867    -15582624    -15570275 
  153700    85.281644    -15582580    -15570165 
  153800    85.304605    -15582653    -15570235 
  153900    84.349915    -15582661    -15570382 
  154000    84.745851    -15582622    -15570284 
  154100    85.101278    -15582627    -15570238 
  154200    85.077974    -15582690    -15570305 
  154300    84.768263    -15582647    -15570307 
  154400    84.691477    -15582637    -15570308 
  154500    84.193358    -15582678    -15570421 
  154600    84.672737    -15582675    -15570348 
  154700    85.196368    -15582696    -15570293 
  154800    85.077445    -15582672    -15570287 
  154900    85.217254    -15582691    -15570285 
  155000    85.029836    -15582679    -15570300 
  155100    84.640426    -15582687    -15570365 
  155200    84.578467    -15582717    -15570404 
  155300    84.269797    -15582650    -15570382 
  155400     85.44982    -15582728    -15570288 
  155500    85.119724    -15582674    -15570283 
  155600    84.717512    -15582677    -15570343 
  155700     85.05296    -15582585    -15570203 
  155800    85.025007    -15582664    -15570286 
  155900    84.854624    -15582576    -15570223 
  156000     85.18205    -15582571    -15570170 
  156100    85.257597    -15582571    -15570159 
  156200    85.002717    -15582612    -15570237 
  156300    85.370565    -15582632    -15570204 
  156400    85.339862    -15582544    -15570120 
  156500    84.752177    -15582661    -15570323 
  156600    84.533485    -15582601    -15570294 
  156700    85.129306    -15582632    -15570239 
  156800    85.716733    -15582631    -15570152 
  156900    85.041367    -15582620    -15570240 
  157000    84.850701    -15582617    -15570264 
  157100    84.814153    -15582591    -15570244 
  157200    84.681503    -15582614    -15570286 
  157300    84.948966    -15582658    -15570292 
  157400    84.397582    -15582643    -15570356 
  157500     85.38311    -15582656    -15570226 
  157600    85.597431    -15582598    -15570137 
  157700    85.039973    -15582677    -15570297 
  157800     85.52231    -15582665    -15570214 
  157900    84.581533    -15582678    -15570365 
  158000    85.519995    -15582649    -15570199 
  158100    85.248276    -15582646    -15570236 
  158200    84.715056    -15582590    -15570257 
  158300    84.825341    -15582627    -15570278 
  158400    84.900764    -15582592    -15570232 
  158500    85.030134    -15582693    -15570314 
  158600    84.913057    -15582632    -15570271 
  158700    84.366037    -15582680    -15570398 
  158800    85.232005    -15582635    -15570227 
  158900    84.770362    -15582598    -15570257 
  159000     85.06542    -15582587    -15570203 
  159100    85.000533    -15582534    -15570159 
  159200    84.297995    -15582595    -15570323 
  159300    84.962501    -15582674    -15570305 
  159400    85.317453    -15582567    -15570147 
  159500    85.492882    -15582551    -15570105 
  159600    85.025882    -15582595    -15570217 
  159700    85.153865    -15582618    -15570221 
  159800    84.994488    -15582581    -15570208 
  159900    84.636838    -15582559    -15570237 
  160000    84.902121    -15582582    -15570222 
  160100    84.907905    -15582602    -15570241 
  160200    85.164049    -15582552    -15570154 
  160300    85.277018    -15582608    -15570193 
  160400    85.551136    -15582631    -15570177 
  160500    84.803234    -15582548    -15570202 
  160600    84.880319    -15582585    -15570228 
  160700    84.820425    -15582527    -15570179 
  160800    85.085346    -15582641    -15570255 
  160900    85.027575    -15582547    -15570168 
  161000     84.74435    -15582530    -15570193 
  161100    85.006516    -15582567    -15570192 
  161200    85.112648    -15582594    -15570204 
  161300    85.348053    -15582625    -15570200 
  161400    85.005916    -15582572    -15570197 
  161500    85.074143    -15582594    -15570209 
  161600    84.523392    -15582611    -15570306 
  161700    84.983919    -15582644    -15570272 
  161800    85.059247    -15582644    -15570261 
  161900    84.919601    -15582592    -15570229 
  162000     84.95736    -15582636    -15570268 
  162100     84.53039    -15582608    -15570302 
  162200    85.312436    -15582679    -15570259 
  162300    85.290068    -15582590    -15570174 
  162400    84.783051    -15582615    -15570272 
  162500      84.7713    -15582538    -15570197 
  162600    84.950145    -15582600    -15570233 
  162700     84.65761    -15582548    -15570224 
  162800    84.887177    -15582608    -15570250 
  162900    84.472318    -15582662    -15570364 
  163000    85.781691    -15582670    -15570182 
  163100    85.221079    -15582667    -15570261 
  163200    85.256925    -15582658    -15570246 
  163300     85.49506    -15582586    -15570140 
  163400    85.034826    -15582652    -15570273 
  163500    84.886621    -15582594    -15570237 
  163600    84.719161    -15582639    -15570306 
  163700    84.744632    -15582626    -15570289 
  163800    84.729287    -15582668    -15570333 
  163900    85.610055    -15582632    -15570169 
  164000    84.514052    -15582664    -15570360 
  164100    84.891105    -15582698    -15570339 
  164200    85.144834    -15582730    -15570335 
  164300    84.875943    -15582797    -15570441 
  164400    84.970813    -15582771    -15570401 
  164500    84.973383    -15582655    -15570284 
  164600    84.779111    -15582709    -15570367 
  164700    85.159311    -15582731    -15570333 
  164800    84.877418    -15582762    -15570405 
  164900    84.472086    -15582709    -15570411 
  165000    84.163847    -15582617    -15570364 
  165100    84.770002    -15582684    -15570344 
  165200    85.146643    -15582627    -15570231 
  165300    85.187442    -15582663    -15570262 
  165400    85.102344    -15582651    -15570262 
  165500    84.697568    -15582663    -15570333 
  165600    84.803893    -15582710    -15570364 
  165700    85.252948    -15582668    -15570257 
  165800    84.924833    -15582593    -15570230 
  165900    85.513888    -15582681    -15570232 
  166000    85.273586    -15582684    -15570270 
  166100    84.879959    -15582729    -15570372 
  166200    84.777297    -15582727    -15570385 
  166300    84.660162    -15582691    -15570367 
  166400    84.571069    -15582694    -15570382 
  166500    85.209844    -15582707    -15570302 
  166600    85.257482    -15582651    -15570239 
  166700    84.827565    -15582721    -15570372 
  166800    85.121906    -15582715    -15570323 
  166900    85.288763    -15582688    -15570272 
  167000     84.82106    -15582626    -15570278 
  167100    84.986863    -15582674    -15570302 
  167200    85.532757    -15582616    -15570164 
  167300    85.427139    -15582713    -15570276 
  167400     84.70678    -15582664    -15570333 
  167500    84.352421    -15582695    -15570415 
  167600    85.129918    -15582687    -15570293 
  167700    85.312762    -15582611    -15570191 
  167800    85.132662    -15582623    -15570230 
  167900    85.085334    -15582614    -15570227 
  168000    85.059495    -15582643    -15570260 
  168100    85.174459    -15582653    -15570253 
  168200    84.929826    -15582574    -15570210 
  168300    85.209082    -15582611    -15570206 
  168400    84.876572    -15582561    -15570205 
  168500    85.009269    -15582587    -15570211 
  168600    84.830036    -15582564    -15570215 
  168700    84.923182    -15582602    -15570239 
  168800    85.219968    -15582523    -15570116 
  168900    85.125998    -15582548    -15570156 
  169000     85.58785    -15582485    -15570025 
  169100    85.585277    -15582491    -15570031 
  169200    84.894155    -15582541    -15570182 
  169300    85.006323    -15582538    -15570163 
  169400    84.699785    -15582485    -15570154 
  169500    84.646492    -15582464    -15570141 
  169600    84.884949    -15582511    -15570153 
  169700    85.376117    -15582418    -15569989 
  169800    84.342087    -15582496    -15570218 
  169900    84.810339    -15582484    -15570137 
  170000    85.259982    -15582544    -15570132 
  170100    85.358133    -15582524    -15570097 
  170200    84.943702    -15582479    -15570113 
  170300    85.039924    -15582473    -15570093 
  170400    85.853121    -15582559    -15570060 
  170500    85.028552    -15582567    -15570189 
  170600    85.417211    -15582536    -15570101 
  170700    85.161801    -15582496    -15570098 
  170800    85.751599    -15582479    -15569995 
  170900    84.477695    -15582516    -15570217 
  171000    84.796223    -15582489    -15570145 
  171100    84.570348    -15582486    -15570174 
  171200    85.164318    -15582516    -15570117 
  171300    85.015359    -15582567    -15570191 
  171400    84.900252    -15582450    -15570090 
  171500    85.160166    -15582552    -15570154 
  171600    85.093935    -15582427    -15570039 
  171700    84.734112    -15582507    -15570172 
  171800    84.944101    -15582508    -15570142 
  171900    84.534207    -15582533    -15570227 
  172000    85.404974    -15582472    -15570039 
  172100    84.544194    -15582432    -15570124 
  172200    84.367046    -15582422    -15570139 
  172300    84.897827    -15582495    -15570136 
  172400    84.464879    -15582461    -15570165 
  172500    85.402624    -15582548    -15570115 
  172600    84.831828    -15582492    -15570142 
  172700    84.720829    -15582547    -15570213 
  172800    84.486624    -15582535    -15570235 
  172900     84.52836    -15582525    -15570219 
  173000    84.492194    -15582461    -15570161 
  173100    84.864802    -15582549    -15570194 
  173200    84.665768    -15582438    -15570112 
  173300    84.704849    -15582384    -15570053 
  173400    84.589355    -15582409    -15570094 
  173500    85.402527    -15582471    -15570038 
  173600    85.243276    -15582473    -15570063 
  173700    84.725608    -15582420    -15570086 
  173800     85.16029    -15582462    -15570065 
  173900    85.312341    -15582511    -15570091 
  174000    85.421313    -15582373    -15569938 
  174100    85.323058    -15582490    -15570069 
  174200    84.954526    -15582448    -15570080 
  174300    85.345018    -15582472    -15570047 
  174400    84.867191    -15582506    -15570151 
  174500    85.150185    -15582445    -15570048 
  174600    85.042357    -15582553    -15570172 
  174700    84.671353    -15582508    -15570182 
  174800    85.338117    -15582511    -15570088 
  174900     84.90333    -15582573    -15570213 
  175000    85.008258    -15582586    -15570210 
  175100    85.151363    -15582526    -15570129 
  175200    84.859879    -15582547    -15570193 
  175300    84.411723    -15582540    -15570251 
  175400    84.218335    -15582489    -15570228 
  175500    84.990638    -15582609    -15570236 
  175600    85.099076    -15582536    -15570147 
  175700    85.177154    -15582549    -15570149 
  175800    84.798191    -15582635    -15570290 
  175900    85.232956    -15582648    -15570239 
  176000      84.9327    -15582611    -15570246 
  176100    84.723189    -15582596    -15570262 
  176200    85.017198    -15582517    -15570141 
  176300    84.955505    -15582584    -15570216 
  176400    84.976514    -15582555    -15570184 
  176500    84.722893    -15582549    -15570215 
  176600    84.931027    -15582610    -15570246 
  176700    84.843017    -15582548    -15570197 
  176800     85.05588    -15582524    -15570141 
  176900    85.467799    -15582592    -15570150 
  177000    85.096679    -15582604    -15570216 
  177100    84.842131    -15582619    -15570268 
  177200     85.01742    -15582614    -15570237 
  177300    84.785904    -15582569    -15570226 
  177400    85.321917    -15582629    -15570208 
  177500    85.639405    -15582634    -15570166 
  177600    85.507842    -15582665    -15570217 
  177700    84.985546    -15582627    -15570255 
  177800    84.990572    -15582654    -15570282 
  177900    85.236076    -15582596    -15570187 
  178000     85.23073    -15582647    -15570239 
  178100    85.145214    -15582655    -15570260 
  178200    85.030698    -15582660    -15570281 
  178300    84.790745    -15582581    -15570237 
  178400     84.86875    -15582698    -15570343 
  178500    84.591358    -15582657    -15570342 
  178600     84.87249    -15582629    -15570273 
  178700    84.937147    -15582635    -15570269 
  178800    85.338264    -15582642    -15570218 
  178900      84.6064    -15582712    -15570395 
  179000    85.422659    -15582682    -15570246 
  179100    85.049941    -15582669    -15570288 
  179200    85.312157    -15582656    -15570236 
  179300     85.07932    -15582612    -15570226 
  179400     84.81061    -15582621    -15570274 
  179500    85.185162    -15582583    -15570182 
  179600    85.481462    -15582647    -15570203 
  179700    85.268458    -15582646    -15570233 
  179800    84.610609    -15582635    -15570317 
  179900    84.894323    -15582604    -15570245 
  180000    84.567429    -15582575    -15570264 
  180100    84.881853    -15582602    -15570245 
  180200    84.960362    -15582600    -15570231 
  180300    85.606902    -15582636    -15570173 
  180400    85.215817    -15582606    -15570200 
  180500    85.045525    -15582592    -15570211 
  180600    85.335563    -15582592    -15570169 
  180700    84.856943    -15582544    -15570191 
  180800     84.89729    -15582637    -15570278 
  180900    84.528409    -15582592    -15570287 
  181000    85.134597    -15582611    -15570217 
  181100    84.753177    -15582579    -15570241 
  181200    85.027927    -15582556    -15570178 
  181300    85.401265    -15582582    -15570149 
  181400    85.189391    -15582651    -15570249 
  181500    85.182305    -15582676    -15570275 
  181600    85.336942    -15582656    -15570232 
  181700    84.588551    -15582684    -15570369 
  181800    84.174023    -15582647    -15570393 
  181900    85.212239    -15582641    -15570236 
  182000     84.93323    -15582616    -15570251 
  182100    85.266557    -15582647    -15570234 
  182200    85.109953    -15582601    -15570211 
  182300    85.282738    -15582619    -15570203 
  182400    85.699159    -15582682    -15570206 
  182500    85.008869    -15582604    -15570229 
  182600    84.925022    -15582594    -15570231 
  182700    85.201954    -15582622    -15570219 
  182800      85.3494    -15582572    -15570147 
  182900    85.378358    -15582594    -15570165 
  183000    85.103253    -15582627    -15570237 
  183100    85.210103    -15582601    -15570196 
  183200    85.246092    -15582588    -15570177 
  183300     85.02399    -15582609    -15570231 
  183400    85.112139    -15582632    -15570242 
  183500     84.75443    -15582624    -15570285 
  183600    85.283422    -15582625    -15570209 
  183700    84.723918    -15582610    -15570276 
  183800     85.33625    -15582626    -15570202 
  183900    85.169146    -15582632    -15570233 
  184000    84.827717    -15582668    -15570318 
  184100     85.51838    -15582609    -15570159 
  184200    85.045949    -15582579    -15570199 
  184300    85.350732    -15582537    -15570112 
  184400     84.89528    -15582579    -15570219 
  184500    85.187563    -15582607    -15570205 
  184600    84.765086    -15582581    -15570241 
  184700    84.608305    -15582557    -15570240 
  184800    84.163387    -15582653    -15570401 
  184900    85.363696    -15582628    -15570201 
  185000    85.529595    -15582650    -15570198 
  185100    85.165363    -15582657    -15570259 
  185200    84.672801    -15582592    -15570266 
  185300     84.65726    -15582626    -15570302 
  185400    84.848985    -15582640    -15570288 
  185500    85.036312    -15582636    -15570256 
  185600    85.074882    -15582622    -15570236 
  185700    85.213569    -15582643    -15570238 
  185800    84.848976    -15582634    -15570282 
  185900    84.387306    -15582639    -15570354 
  186000    85.263157    -15582659    -15570247 
  186100    84.827438    -15582632    -15570283 
  186200     84.79399    -15582673    -15570329 
  186300    84.942561    -15582624    -15570258 
  186400    84.664731    -15582597    -15570272 
  186500    84.935515    -15582613    -15570248 
  186600    85.016681    -15582643    -15570266 
  186700    85.014143    -15582612    -15570235 
  186800    84.777218    -15582623    -15570281 
  186900    84.465959    -15582603    -15570306 
  187000    84.599877    -15582655    -15570339 
  187100     84.37886    -15582690    -15570406 
  187200     84.30741    -15582605    -15570331 
  187300    84.559339    -15582701    -15570391 
  187400    85.262943    -15582614    -15570201 
  187500    85.923755    -15582604    -15570096 
  187600    85.397382    -15582605    -15570173 
  187700    84.915533    -15582664    -15570302 
  187800    84.707772    -15582625    -15570293 
  187900    85.700465    -15582600    -15570124 
  188000    85.471913    -15582619    -15570176 
  188100    84.970449    -15582645    -15570275 
  188200    84.880662    -15582683    -15570326 
  188300    84.763193    -15582640    -15570300 
  188400    84.546299    -15582618    -15570310 
  188500    84.541296    -15582600    -15570292 
  188600    84.664317    -15582614    -15570288 
  188700    84.525831    -15582589    -15570284 
  188800    85.045685    -15582574    -15570194 
  188900    84.784559    -15582577    -15570234 
  189000    84.873794    -15582597    -15570242 
  189100    85.015138    -15582566    -15570189 
  189200    84.864009    -15582542    -15570188 
  189300    84.807659    -15582614    -15570268 
  189400    85.090854    -15582563    -15570175 
  189500    85.043739    -15582652    -15570272 
  189600     84.49442    -15582651    -15570351 
  189700    84.717227    -15582680    -15570347 
  189800    85.721444    -15582635    -15570156 
  189900     85.23172    -15582592    -15570184 
  190000    85.260687    -15582690    -15570278 
  190100    85.157514    -15582560    -15570163 
  190200    85.245404    -15582625    -15570215 
  190300    84.977673    -15582572    -15570201 
  190400    84.910372    -15582532    -15570171 
  190500    84.935978    -15582547    -15570182 
  190600    84.746605    -15582580    -15570242 
  190700    85.116609    -15582562    -15570170 
  190800    85.157383    -15582601    -15570204 
  190900    84.453645    -15582586    -15570292 
  191000    84.945934    -15582498    -15570131 
  191100    84.552488    -15582487    -15570178 
  191200    84.805189    -15582422    -15570076 
  191300    85.249501    -15582537    -15570127 
  191400    84.808028    -15582498    -15570151 
  191500    85.148237    -15582538    -15570142 
  191600    85.148219    -15582530    -15570134 
  191700    85.407826    -15582525    -15570091 
  191800    84.953473    -15582551    -15570183 
  191900    85.434465    -15582507    -15570070 
  192000    84.950973    -15582522    -15570155 
  192100    84.649798    -15582494    -15570171 
  192200    85.189635    -15582569    -15570167 
  192300    85.624192    -15582481    -15570016 
  192400    85.637307    -15582522    -15570055 
  192500    85.695624    -15582495    -15570020 
  192600    85.064605    -15582473    -15570089 
  192700    84.630531    -15582480    -15570160 
  192800    84.539564    -15582528    -15570221 
  192900    85.300278    -15582522    -15570104 
  193000    85.586067    -15582462    -15570002 
  193100     84.24665    -15582503    -15570238 
  193200     84.38644    -15582433    -15570148 
  193300    84.481792    -15582425    -15570126 
  193400    84.874972    -15582572    -15570216 
  193500    84.957793    -15582506    -15570138 
  193600    84.518329    -15582509    -15570204 
  193700     84.13861    -15582571    -15570322 
  193800    84.946725    -15582546    -15570179 
  193900    85.455892    -15582530    -15570090 
  194000    85.183179    -15582548    -15570147 
  194100    84.822396    -15582522    -15570174 
  194200    84.471348    -15582452    -15570154 
  194300     84.77615    -15582487    -15570146 
  194400    85.481731    -15582544    -15570099 
  194500    84.969423    -15582499    -15570129 
  194600    85.013774    -15582522    -15570146 
  194700    85.187527    -15582539    -15570137 
  194800    84.822517    -15582546    -15570198 
  194900    84.427846    -15582505    -15570214 
  195000    85.197442    -15582546    -15570143 
  195100    84.674721    -15582502    -15570175 
  195200    84.885876    -15582521    -15570163 
  195300    84.793614    -15582506    -15570162 
  195400    85.322394    -15582592    -15570171 
  195500    85.045767    -15582567    -15570186 
  195600    84.964387    -15582515    -15570146 
  195700    85.094973    -15582554    -15570166 
  195800    85.136652    -15582512    -15570118 
  195900    84.909912    -15582443    -15570082 
  196000    85.421351    -15582548    -15570113 
  196100    85.218045    -15582540    -15570134 
  196200    84.829258    -15582551    -15570201 
  196300    84.897148    -15582619    -15570260 
  196400    84.934318    -15582517    -15570152 
  196500    84.909772    -15582570    -15570209 
  196600    84.659222    -15582539    -15570214 
  196700    84.922422    -15582535    -15570172 
  196800    85.286118    -15582527    -15570111 
  196900    84.517566    -15582515    -15570211 
  197000    84.423909    -15582475    -15570184 
  197100     84.82847    -15582458    -15570109 
  197200    84.929206    -15582487    -15570123 
  197300    84.971341    -15582514    -15570144 
  197400    85.095611    -15582466    -15570078 
  197500    85.154957    -15582505    -15570108 
  197600     84.73471    -15582498    -15570162 
  197700    84.745086    -15582491    -15570154 
  197800    84.853296    -15582437    -15570084 
  197900    84.880563    -15582436    -15570079 
  198000    85.189303    -15582436    -15570034 
  198100    84.608843    -15582469    -15570152 
  198200    84.637773    -15582464    -15570142 
  198300    84.276852    -15582480    -15570211 
  198400    85.782192    -15582506    -15570017 
  198500    84.977971    -15582462    -15570091 
  198600    85.230886    -15582517    -15570109 
  198700    85.095684    -15582524    -15570135 
  198800    84.841978    -15582588    -15570237 
  198900    84.811204    -15582558    -15570211 
  199000    84.988697    -15582523    -15570150 
  199100    84.721463    -15582482    -15570148 
  199200    85.105864    -15582559    -15570170 
  199300    84.524431    -15582430    -15570125 
  199400    84.882892    -15582377    -15570019 
  199500    84.614137    -15582544    -15570226 
  199600    84.822612    -15582545    -15570197 
  199700    84.820768    -15582546    -15570198 
  199800    84.906389    -15582529    -15570168 
  199900    85.417818    -15582544    -15570109 
  200000     85.29057    -15582563    -15570147 
Loop time of 49018 on 32 procs for 200000 steps with 179040 atoms

Performance: 1.763 ns/day, 13.616 hours/ns, 4.080 timesteps/s
95.3% CPU use with 4 MPI tasks x 8 OpenMP threads

MPI task timing breakdown:
Section |  min time  |  avg time  |  max time  |%varavg| %total
---------------------------------------------------------------
Pair    | 5543.4     | 21331      | 44161      |11327.2 | 43.52
Neigh   | 1243.5     | 2120.4     | 3373.7     |1982.8 |  4.33
Comm    | 786.8      | 21303      | 41514      |10210.3 | 43.46
Output  | 66.378     | 66.465     | 66.549     |   0.8 |  0.14
Modify  | 138.88     | 4068.9     | 15117      |10003.0 |  8.30
Other   |            | 128.9      |            |       |  0.26

Nlocal:    44760 ave 62016 max 32450 min
Histogram: 2 0 0 0 0 0 1 0 0 1
Nghost:    87409.2 ave 101961 max 76038 min
Histogram: 2 0 0 0 0 0 0 1 0 1
Neighs:    9.72964e+06 ave 1.9648e+07 max 2.84261e+06 min
Histogram: 2 0 0 0 0 0 1 0 0 1

Total # of neighbors = 38918551
Ave neighs/atom = 217.373
Neighbor list builds = 6323
Dangerous builds = 0


Total wall time: 13:37:35
