LAMMPS (3 Mar 2020)
  using 16 OpenMP thread(s) per MPI task
## binning x:2.9-35.6, y:0.0-34.7, z:30-45
## binning x:60-90 x:120-150

############################################################
#####	 	    Argon sandwich	   	   #########
############################################################
variable		T equal 1.0
variable 		V equal vol
variable 		dt equal 0.002

units			lj
atom_style		bond
special_bonds 		fene

dimension 		3
boundary		f p f

read_data         	tank_atomdata
  orthogonal box = (0 0 0) to (39.2 34.7 48.2)
  1 by 1 by 1 MPI processor grid
  reading atoms ...
  40455 atoms
  scanning bonds ...
  1 = max bonds/atom
  reading bonds ...
  26040 bonds
  2 = max # of 1-2 neighbors
  2 = max # of special neighbors
  special bonds CPU = 0.00759101 secs
  read_data CPU = 0.10893 secs
#read_restart 		water.restart.mpiio

############################################################
#############INTERACTION PARAMETERS#########################
group                   bread     type 2
10695 atoms in group bread
group                   ham       type 1
29760 atoms in group ham

mass                    2       1.0  ## wall
mass                    1       1.0  ## liquid

neighbor        	0.3 bin
neigh_modify		every 1 delay 10 check yes
################### L-J potential #####################
pair_style              lj/cut  2.5

pair_coeff              1 1  1.0 1.0 2.5
pair_coeff              1 2  0.5 1.0 2.5
pair_coeff              2 2  1.0 1.0 2.5
#################### FENE bond #########################
bond_style 		fene
bond_coeff 		1 10.2478 1.4 1.0 1.0
#################### Harmonic potential ##################
fix 			wall bread spring/self 10000.0

thermo 			10
min_style 		fire
min_modify 		dmax 0.005
minimize 		1.0e-5 1.0e-7 500 10000
WARNING: Using 'neigh_modify every 1 delay 0 check yes' setting during minimization (../min.cpp:190)
Neighbor list info ...
  update every 1 steps, delay 0 steps, check yes
  max neighbors/atom: 2000, page size: 100000
  master list distance cutoff = 2.8
  ghost atom cutoff = 2.8
  binsize = 1.4, bins = 29 25 35
  1 neighbor lists, perpetual/occasional/extra = 1 0 0
  (1) pair lj/cut, perpetual
      attributes: half, newton on
      pair build: half/bin/newton
      stencil: half/bin/3d/newton
      bin: standard
  Parameters for fire: 
    dmax delaystep dtgrow dtshrink alpha0 alphashrink tmax tmin    integrator halfstepback 
    0.005        20    1.1      0.5   0.25        0.99   10 0.02 eulerimplicit          yes 
Per MPI rank memory allocation (min/avg/max) = 47.94 | 47.94 | 47.94 Mbytes
Step Temp E_pair E_mol TotEng Press 
       0            0   -4.2159818    5.9828946    1.7669128   -4.2833446 
      10  0.074671602   -4.2270324     5.833429    1.7184012   -3.9406926 
      20   0.14855664   -4.2203734     5.665874    1.6683301   -3.3454337 
      30   0.22561083   -4.2273254    5.5105293    1.6216118   -2.8069351 
      40   0.30363503   -4.2538844    5.3798845    1.5814414   -2.2628925 
      50   0.36902752    -4.287708    5.2934166    1.5592362   -1.7301409 
      60   0.41317922   -4.3433979    5.2554793     1.531835   -1.1790464 
      70   0.41118995   -4.3920179    5.2651875    1.4899393  -0.57972072 
      80 0.00026680108   -4.4067964    5.2746075   0.86821122  -0.67628553 
      90 0.00020743633   -4.4064969    5.2741159   0.86793012  -0.68508628 
     100 0.00084558717    -4.406392    5.2730431   0.86791945  -0.70170956 
     110 0.0025305018   -4.4078691    5.2716745    0.8676011  -0.72591361 
     120 3.9522959e-05   -4.4088716    5.2714902   0.86267788  -0.73243359 
     130 0.00025217163   -4.4094272    5.2715067   0.86245772  -0.73300238 
     140 0.00074733243   -4.4106017    5.2715391   0.86205836  -0.73435073 
     150 0.0028954162   -4.4154903    5.2716198    0.8604725  -0.74111964 
     160 0.0029359944   -4.4210559    5.2715896   0.85493754  -0.75262761 
     170 0.0034940453   -4.4262225    5.2714224   0.85044076  -0.76541287 
     180 0.0057984505   -4.4326227    5.2710346   0.84710939   -0.7830596 
     190  0.010031427   -4.4407616    5.2703068   0.84459195  -0.80849892 
     200  0.015501186   -4.4504986    5.2691811   0.84193379  -0.84322795 
     210  0.021909909   -4.4613614    5.2677227   0.83922534  -0.88710861 
     220   0.03028485   -4.4746778    5.2658042   0.83655246  -0.94752961 
     230  0.041506321   -4.4922474    5.2634121   0.83342261   -1.0311451 
     240  0.055124183     -4.51396    5.2609284   0.82965262   -1.1335905 
     250  0.070235456     -4.53969    5.2588429   0.82450357   -1.2451422 
     260  0.085966658   -4.5682715    5.2574478   0.81812308   -1.3563864 
     270   0.10069328   -4.5984929    5.2567488   0.80929208   -1.4571062 
     280   0.11175332   -4.6265521    5.2564245   0.79749824   -1.5319743 
     290   0.12014224   -4.6523109     5.256145   0.78404309   -1.5817042 
     300   0.12543388   -4.6745824    5.2559597   0.76952347   -1.6109928 
     310   0.12905581   -4.6948704    5.2559129    0.7546214   -1.6265452 
     320   0.13142763   -4.7151596    5.2560647   0.73804169   -1.6337762 
     330   0.13036592    -4.732477    5.2563324   0.71939939   -1.6344086 
     340   0.12907032   -4.7492749    5.2566375   0.70096338   -1.6288414 
     350   0.12765165   -4.7668017    5.2569963   0.68166733   -1.6204099 
     360   0.12480186   -4.7836366    5.2573564   0.66091791   -1.6123518 
     370   0.12094284   -4.7981122    5.2576142   0.64091178    -1.605464 
     380   0.11780463   -4.8115249    5.2577832   0.62296089   -1.5984362 
     390   0.11553996   -4.8247975    5.2579093   0.60641754   -1.5916966 
     400   0.11395796   -4.8384219    5.2580332   0.59054404   -1.5854906 
     410    0.1127791   -4.8529727     5.258199   0.57439072   -1.5791181 
     420   0.11050645   -4.8670473    5.2584202   0.55712847   -1.5724457 
     430   0.10741743   -4.8806283    5.2586824    0.5391763    -1.563308 
     440   0.10397632   -4.8940534    5.2589916   0.52089883   -1.5497828 
     450  0.099925861   -4.9062452    5.2593099   0.50294979   -1.5333597 
     460  0.096082132   -4.9174988    5.2595937   0.48621462   -1.5146938 
     470  0.092970264    -4.928414    5.2598515   0.47088944   -1.4936237 
     480  0.090590525   -4.9393124    5.2600903    0.4566603   -1.4710212 
     490  0.088804037   -4.9501024    5.2603086   0.44340901   -1.4472528 
     500  0.087418936   -4.9605664    5.2605185   0.43107729   -1.4224326 
Loop time of 13.0765 on 16 procs for 500 steps with 40455 atoms

99.7% CPU use with 1 MPI tasks x 16 OpenMP threads

Minimization stats:
  Stopping criterion = max iterations
  Energy initial, next-to-last, final = 
         1.76691280902     0.300933173495     0.299952129768
  Force two-norm initial, final = 2849.35 508.675
  Force max component initial, final = 28.9907 22.0549
  Final line search alpha, max atom move = 0 0
  Iterations, force evaluations = 500 506

MPI task timing breakdown:
Section |  min time  |  avg time  |  max time  |%varavg| %total
---------------------------------------------------------------
Pair    | 11.279     | 11.279     | 11.279     |   0.0 | 86.25
Bond    | 0.64853    | 0.64853    | 0.64853    |   0.0 |  4.96
Neigh   | 0.65561    | 0.65561    | 0.65561    |   0.0 |  5.01
Comm    | 0.022359   | 0.022359   | 0.022359   |   0.0 |  0.17
Output  | 0.0055797  | 0.0055797  | 0.0055797  |   0.0 |  0.04
Modify  | 0.067484   | 0.067484   | 0.067484   |   0.0 |  0.52
Other   |            | 0.3982     |            |       |  3.04

Nlocal:    40455 ave 40455 max 40455 min
Histogram: 1 0 0 0 0 0 0 0 0 0
Nghost:    5740 ave 5740 max 5740 min
Histogram: 1 0 0 0 0 0 0 0 0 0
Neighs:    1.37813e+06 ave 1.37813e+06 max 1.37813e+06 min
Histogram: 1 0 0 0 0 0 0 0 0 0

Total # of neighbors = 1378129
Ave neighs/atom = 34.0657
Ave special neighs/atom = 1.28736
Neighbor list builds = 15
Dangerous builds = 0

############################################################
#############EQUILIBRATION PARAMETERS######################
#velocity 		all create ${T} 12345
velocity 		ham create $T 394857
velocity 		ham create 1 394857
velocity 		bread create $T 93749
velocity 		bread create 1 93749
compute 		myTemp all temp
fix			1 all nvt temp ${T} ${T} 100.0
fix			1 all nvt temp 1 ${T} 100.0
fix			1 all nvt temp 1 1 100.0
fix 			2 all langevin 1 1 10 100000
fix 			30 all wall/reflect zhi EDGE
fix 			300 all wall/reflect zlo EDGE
fix 			40 all wall/reflect xhi EDGE
fix 			400 all wall/reflect xlo EDGE
timestep 		${dt}
timestep 		0.002
thermo 			100

#dump 			1 all custom 20000 5equ_tank.dat id type x y z
run 			20000
Per MPI rank memory allocation (min/avg/max) = 47.94 | 47.94 | 47.94 Mbytes
Step Temp E_pair E_mol TotEng Press 
     500   0.99997528   -4.9605664    5.2605185     1.799878   -0.8593675 
     600   0.45643716   -4.6607012    5.4423347    1.4662723  -0.44745537 
     700   0.61000256   -4.6464106     5.428657    1.6972276  -0.54507352 
     800   0.61287629   -4.6489665    5.4380227    1.7083479  -0.60077885 
     900   0.53513926   -4.6495056     5.439429    1.5926124  -0.67618439 
    1000   0.67722616   -4.6445075      5.44556    1.8168666  -0.61999145 
    1100   0.55849611   -4.6456324    5.4501124    1.6422035  -0.67046325 
    1200   0.65614143   -4.6470726    5.4551979    1.7923131  -0.64715637 
    1300   0.63279562   -4.6458718    5.4581367    1.7614349  -0.65182016 
    1400   0.63166887   -4.6497156    5.4618086    1.7595729   -0.6349226 
    1500    0.6688388   -4.6506634    5.4647476    1.8173176  -0.61713691 
    1600   0.66285521   -4.6500534    5.4667472     1.810952   -0.5624508 
    1700    0.6655682   -4.6555792    5.4684529    1.8112013  -0.56148114 
    1800   0.69846644   -4.6571933    5.4731211    1.8636015  -0.51089431 
    1900   0.69703214   -4.6620851    5.4782881    1.8617254  -0.51596918 
    2000   0.68498105   -4.6670992    5.4844728    1.8448198  -0.43016435 
    2100   0.75572358   -4.6699191    5.4822975    1.9459357   -0.3976266 
    2200   0.69988354   -4.6763866     5.481313    1.8547257  -0.40542147 
    2300   0.76229208   -4.6795757    5.4875414    1.9513756  -0.35274979 
    2400   0.75247613   -4.6876878    5.4905476    1.9315461  -0.36194883 
    2500   0.74345647   -4.6917186    5.4929587    1.9163972   -0.3043487 
    2600   0.78754274   -4.6918729    5.5000325    1.9894445  -0.24063462 
    2700   0.75848561   -4.7046067    5.4997788    1.9328724  -0.25432056 
    2800   0.79598103   -4.7112207     5.505444    1.9881654  -0.16839259 
    2900   0.79534193    -4.713444    5.5015348    1.9810742  -0.12929672 
    3000   0.80046294   -4.7232734    5.5060076     1.983399 -0.079558093 
    3100   0.81763164   -4.7336986    5.5097225     2.002441 -0.0026873193 
    3200   0.82300175   -4.7444162    5.5138373    2.0038932  0.025896786 
    3300   0.82278507   -4.7435158    5.5173479    2.0079792  0.066255054 
    3400   0.83725711   -4.7483582    5.5228716     2.030368   0.12884273 
    3500   0.84031188   -4.7521453    5.5199893    2.0282806   0.19387478 
    3600   0.83829876   -4.7560966    5.5290883    2.0304088   0.25049275 
    3700   0.85782596   -4.7605462    5.5281176    2.0542785   0.27581114 
    3800   0.84286697   -4.7590502    5.5324689     2.037688   0.30846583 
    3900   0.86737437   -4.7628806    5.5279645    2.0661133   0.31791657 
    4000    0.8654638   -4.7660943    5.5357732    2.0678424    0.2922731 
    4100   0.86460366    -4.760805    5.5303996     2.066468   0.29369942 
    4200   0.87094764   -4.7602201    5.5343741    2.0805431    0.3602742 
    4300    0.8714429   -4.7569278    5.5336561    2.0838603   0.34159065 
    4400   0.86844227   -4.7551961    5.5354025    2.0828377   0.26409477 
    4500   0.87795472   -4.7431383     5.535767    2.1095282   0.27554842 
    4600   0.87133482   -4.7388891    5.5312417    2.0993225   0.22611959 
    4700   0.87504145    -4.732402    5.5336297    2.1137574   0.18072604 
    4800    0.8788811   -4.7240219    5.5338455    2.1281126   0.12781468 
    4900   0.86429144   -4.7157252    5.5337782    2.1144581  0.072310609 
    5000   0.87861575   -4.7035246    5.5321901    2.1465566  0.066161047 
    5100   0.86608758   -4.7004298    5.5352292    2.1338987  0.059557673 
    5200   0.87225627   -4.6895847    5.5300119    2.1487792  0.040395251 
    5300   0.87084496   -4.6771808    5.5297437    2.1587981 -0.020913331 
    5400   0.86906698    -4.672079    5.5308647     2.162354 -0.073982829 
    5500    0.8701483   -4.6638791    5.5281274    2.1694385  -0.11364852 
    5600   0.86975524   -4.6551121    5.5288931    2.1783816  -0.12784827 
    5700   0.86660027   -4.6462413    5.5270836    2.1807105  -0.14715328 
    5800   0.86920395   -4.6397598    5.5247586    2.1887725  -0.17251211 
    5900   0.87478652   -4.6369154    5.5268593    2.2020913    -0.170344 
    6000   0.86226339   -4.6256409    5.5271111    2.1948334  -0.19123926 
    6100   0.87654775   -4.6206689     5.526641    2.2207612  -0.18747247 
    6200   0.86824227   -4.6181172    5.5261239     2.210338  -0.18489679 
    6300   0.87676422   -4.6142058    5.5257189    2.2266269   -0.1939553 
    6400   0.87717019   -4.6085269    5.5280261     2.235222  -0.17476023 
    6500   0.87116078   -4.6062315    5.5321627    2.2326401  -0.19842632 
    6600   0.88395131    -4.603085    5.5285454    2.2513547  -0.19626068 
    6700   0.87179013   -4.5939284    5.5278768    2.2416013  -0.13918237 
    6800   0.88159371   -4.5976473     5.532298    2.2570085  -0.17608962 
    6900   0.88127732   -4.5937801    5.5292358     2.257339   -0.1959947 
    7000   0.88188111   -4.5898687    5.5308097      2.26373  -0.16755933 
    7100   0.88476015   -4.5877623    5.5313878    2.2707329  -0.17752451 
    7200   0.89030322   -4.5844131     5.527199    2.2782077  -0.14438698 
    7300   0.88686675   -4.5816164    5.5283917    2.2770425  -0.16585475 
    7400   0.89229084   -4.5809458    5.5296473    2.2871047   -0.1653323 
    7500   0.89250804   -4.5824858    5.5313186    2.2875618  -0.15015844 
    7600   0.89192627   -4.5809338    5.5310238    2.2879463  -0.17050063 
    7700   0.90052037   -4.5788488    5.5264887     2.298387  -0.11428901 
    7800    0.8992452   -4.5802284    5.5332971    2.3019032  -0.10561845 
    7900   0.90053783   -4.5740336     5.532256    2.3089958  -0.10705659 
    8000   0.90109346   -4.5745074    5.5352715    2.3123709  -0.13229986 
    8100   0.90439442   -4.5719898    5.5378206    2.3223889 -0.086495868 
    8200   0.90389714   -4.5709018    5.5375177    2.3224281 -0.080183895 
    8300   0.91155354   -4.5683844    5.5351337    2.3340458 -0.074852632 
    8400    0.9090328   -4.5680757    5.5427316    2.3381714 -0.047626288 
    8500   0.90735338    -4.566144    5.5404456     2.335298  -0.10713619 
    8600    0.9158377   -4.5594176    5.5373389    2.3516439 -0.072048461 
    8700   0.90940945   -4.5626761    5.5470404    2.3484448 -0.092684359 
    8800   0.91656656   -4.5602109    5.5413659    2.3559709  -0.10609615 
    8900   0.91664907   -4.5546671    5.5411363    2.3614088 -0.071004111 
    9000   0.91550153   -4.5514313    5.5400259     2.361813  -0.11498978 
    9100   0.91952068   -4.5466392    5.5404054    2.3730132   -0.1035778 
    9200   0.91501136   -4.5386251    5.5396114    2.3734694 -0.087985567 
    9300   0.91201266   -4.5379061    5.5444931    2.3745721 -0.098644777 
    9400   0.92096895   -4.5363228    5.5427839    2.3878804  -0.11438395 
    9500   0.91234794    -4.531373    5.5441159     2.381231  -0.11534156 
    9600   0.91838128   -4.5352966    5.5461821    2.3884234  -0.14795172 
    9700   0.91837929   -4.5252185    5.5422494    2.3945658  -0.16014978 
    9800   0.91503425   -4.5240386    5.5394354    2.3879142  -0.18627843 
    9900   0.91752514   -4.5188127    5.5433849    2.4008259  -0.15210336 
   10000   0.91661935   -4.5169806     5.541615    2.3995295  -0.15726194 
   10100   0.92116234   -4.5158329    5.5417657    2.4076422  -0.17085778 
   10200   0.91609322   -4.5083585     5.545319    2.4110664  -0.21204074 
   10300   0.91665666   -4.5077439    5.5451894    2.4123965  -0.19929399 
   10400   0.92150922   -4.4988929    5.5401162     2.423453  -0.17555027 
   10500   0.92239248    -4.501124    5.5393214    2.4217519  -0.23008863 
   10600   0.92228245    -4.493744    5.5408509    2.4304963  -0.21076207 
   10700   0.91884782   -4.4897893    5.5434249    2.4318733  -0.17216693 
   10800   0.92462935   -4.4936123    5.5436641    2.4369615  -0.22051106 
   10900   0.92290724   -4.4885536     5.545114    2.4408871  -0.22285928 
   11000   0.92599893   -4.4886067    5.5464182    2.4467756  -0.20149892 
   11100   0.92324439   -4.4785026    5.5444223     2.450752  -0.18653567 
   11200   0.92323467   -4.4734324    5.5439109    2.4552963  -0.19255397 
   11300   0.92456006    -4.476218    5.5488484    2.4594362  -0.20180678 
   11400   0.92577647    -4.466037    5.5432141    2.4658075  -0.19767315 
   11500   0.92996762   -4.4703122    5.5477519    2.4723566  -0.16208703 
   11600   0.92817241   -4.4682087    5.5486663    2.4726818  -0.13585557 
   11700   0.93565961   -4.4700764     5.550296    2.4836743  -0.13991944 
   11800   0.93687949   -4.4698371    5.5489414    2.4843888  -0.17988851 
   11900   0.93931219   -4.4633426    5.5482482     2.493839  -0.14791594 
   12000   0.93825954   -4.4643003     5.554218    2.4972722  -0.15559162 
   12100   0.94110062   -4.4631718    5.5506387    2.4990829  -0.16488745 
   12200   0.94409679   -4.4598871    5.5492787    2.5055018  -0.16816303 
   12300    0.9399299   -4.4544425    5.5486997    2.5041171  -0.18256973 
   12400   0.94143331   -4.4524962    5.5500939    2.5097127   -0.1862669 
   12500   0.93956221   -4.4499631    5.5537413    2.5130866  -0.13780485 
   12600   0.93878888   -4.4454003    5.5525621    2.5153103  -0.14133575 
   12700   0.94087328   -4.4484536    5.5534518    2.5162732  -0.20461262 
   12800   0.93827516   -4.4430286    5.5558404    2.5201897  -0.18167809 
   12900   0.93921951   -4.4431585     5.556239    2.5218749  -0.18298168 
   13000   0.94839666   -4.4451828    5.5537668    2.5311438  -0.20629731 
   13100    0.9413022   -4.4406517    5.5557261    2.5269928  -0.15529787 
   13200   0.94137901   -4.4380193    5.5552639    2.5292782  -0.16439123 
   13300   0.94887162   -4.4411653    5.5546537    2.5367607  -0.20758623 
   13400   0.94573215   -4.4349745    5.5514194    2.5350081  -0.19419381 
   13500   0.94960858   -4.4324084    5.5521286    2.5440978  -0.18561816 
   13600   0.94628514   -4.4299156    5.5534717    2.5429487  -0.17932624 
   13700   0.94681809    -4.427543    5.5525633    2.5452124  -0.17669613 
   13800   0.94278347   -4.4205996    5.5540423    2.5475829  -0.15625159 
   13900    0.9528307   -4.4295122    5.5529675     2.552666  -0.21763007 
   14000   0.94846151   -4.4243689     5.554519    2.5528073  -0.20089941 
   14100   0.95076424   -4.4192373    5.5527522     2.559626  -0.19281154 
   14200   0.94780558   -4.4169278    5.5551893    2.5599347  -0.19755224 
   14300   0.95222252   -4.4164756    5.5494608    2.5612836  -0.17981953 
   14400   0.94964213   -4.4136459    5.5540035    2.5647856  -0.17758914 
   14500   0.94592028   -4.4079657    5.5527155    2.5635952  -0.17916524 
   14600   0.95702196    -4.414992    5.5569368    2.5774422  -0.22026899 
   14700   0.95066928   -4.4130734     5.558479    2.5713743  -0.21945664 
   14800   0.95400212   -4.4114824    5.5591434    2.5786288  -0.16581902 
   14900   0.95731611   -4.4114984    5.5578873    2.5823275   -0.1739426 
   15000   0.95329221   -4.4124766    5.5598472    2.5772736  -0.22075198 
   15100   0.95633026   -4.4021496     5.559114    2.5914243  -0.19844669 
   15200   0.95192716   -4.4010455    5.5568003    2.5836102  -0.17114467 
   15300   0.95890736   -4.4007897    5.5556278    2.5931636  -0.15180539 
   15400   0.95368936    -4.396897    5.5571467    2.5907483  -0.16920677 
   15500    0.9526424   -4.3945919    5.5600824    2.5944188   -0.1585549 
   15600   0.95708251   -4.3959457    5.5584105    2.5980531  -0.20103406 
   15700    0.9587519   -4.3970403    5.5566135    2.5976654  -0.22364884 
   15800   0.96068603   -4.3960709    5.5588073    2.6037298  -0.20317218 
   15900   0.96437409   -4.3961089    5.5548569    2.6052734  -0.21111646 
   16000    0.9609176   -4.3907898    5.5563138    2.6068648  -0.18944904 
   16100   0.96122451   -4.3932492    5.5618128    2.6103648  -0.19398327 
   16200    0.9591597   -4.3825716    5.5595635     2.615696  -0.17061326 
   16300   0.95681322   -4.3866136    5.5639201    2.6124909  -0.17354452 
   16400   0.96762388   -4.3820636    5.5557613    2.6250976  -0.21061656 
   16500   0.95667116   -4.3802618    5.5619881    2.6166976  -0.22632363 
   16600    0.9651663   -4.3770967    5.5591004    2.6297174   -0.2065551 
   16700   0.95814344   -4.3743458    5.5650635    2.6278972  -0.20210685 
   16800   0.96187803   -4.3761627    5.5602351    2.6268538  -0.23139288 
   16900   0.96660048   -4.3727748    5.5613319     2.638422   -0.1809788 
   17000   0.96439524   -4.3728566    5.5610404    2.6347409  -0.19421709 
   17100   0.96454316   -4.3706382     5.566018    2.6421588  -0.16856253 
   17200   0.96521048   -4.3689714    5.5626378    2.6414464  -0.17582841 
   17300   0.96862558   -4.3724207    5.5625188    2.6430006  -0.21070724 
   17400   0.97058219   -4.3690442      5.56078    2.6475731  -0.18376504 
   17500   0.96787216   -4.3688055    5.5647767    2.6477435  -0.17456085 
   17600   0.96675443   -4.3655405    5.5641052    2.6486605  -0.17718731 
   17700   0.96910517   -4.3631031    5.5618374    2.6523561  -0.20315826 
   17800   0.97034847   -4.3640107    5.5619485    2.6534245   -0.2174911 
   17900   0.96986253   -4.3611619    5.5613394    2.6549353  -0.18486016 
   18000     0.970587   -4.3572051    5.5645427    2.6631821   -0.1905402 
   18100   0.97223103   -4.3628339    5.5631148    2.6585914  -0.21520851 
   18200    0.9745195   -4.3585379    5.5631754    2.6663806  -0.20203823 
   18300   0.97228099   -4.3619376    5.5690341    2.6654819  -0.19550593 
   18400   0.97373914   -4.3592757    5.5645746    2.6658715  -0.19416524 
   18500   0.97370876   -4.3575814    5.5670516    2.6699972  -0.22071126 
   18600   0.97481252   -4.3564758    5.5638921    2.6695989  -0.21579432 
   18700   0.97788668    -4.359511    5.5641225    2.6714052  -0.21593946 
   18800   0.97519246   -4.3547403    5.5674155    2.6754277   -0.2070135 
   18900   0.97484242   -4.3495735    5.5632842    2.6759382  -0.20905364 
   19000   0.97216472   -4.3458496    5.5647661    2.6771276  -0.18419946 
   19100   0.97607362   -4.3483605     5.567634    2.6833477  -0.16033084 
   19200   0.97424559   -4.3510142    5.5664004    2.6767184  -0.23661426 
   19300   0.97773428   -4.3453889    5.5657623    2.6869385   -0.2020623 
   19400   0.97867246   -4.3486447    5.5675982    2.6869259  -0.20972106 
   19500   0.97793186   -4.3445086    5.5661273    2.6884802  -0.19484953 
   19600   0.98080831   -4.3461515    5.5675307    2.6925554  -0.17972419 
   19700   0.97742404   -4.3404461    5.5646837    2.6903375  -0.19660015 
   19800   0.97812353   -4.3372647    5.5681419    2.6980262   -0.1717189 
   19900   0.98310826   -4.3454081    5.5624035    2.6916213  -0.20259908 
   20000   0.98260264   -4.3421402    5.5655186    2.6972459  -0.19157713 
   20100   0.98287266   -4.3465532     5.565689    2.6934083   -0.2360165 
   20200   0.97632002   -4.3388236    5.5676018    2.6932221  -0.18890336 
   20300   0.97951435   -4.3371303    5.5675182    2.6996231  -0.21826998 
   20400   0.97936554   -4.3394058    5.5662562    2.6958624  -0.22021593 
   20500   0.98479628   -4.3367314    5.5661202    2.7065467  -0.18870427 
Loop time of 420.133 on 16 procs for 20000 steps with 40455 atoms

Performance: 8225.973 tau/day, 47.604 timesteps/s
99.8% CPU use with 1 MPI tasks x 16 OpenMP threads

MPI task timing breakdown:
Section |  min time  |  avg time  |  max time  |%varavg| %total
---------------------------------------------------------------
Pair    | 301.52     | 301.52     | 301.52     |   0.0 | 71.77
Bond    | 8.4685     | 8.4685     | 8.4685     |   0.0 |  2.02
Neigh   | 53.988     | 53.988     | 53.988     |   0.0 | 12.85
Comm    | 1.227      | 1.227      | 1.227      |   0.0 |  0.29
Output  | 0.024074   | 0.024074   | 0.024074   |   0.0 |  0.01
Modify  | 52.881     | 52.881     | 52.881     |   0.0 | 12.59
Other   |            | 2.023      |            |       |  0.48

Nlocal:    40455 ave 40455 max 40455 min
Histogram: 1 0 0 0 0 0 0 0 0 0
Nghost:    6604 ave 6604 max 6604 min
Histogram: 1 0 0 0 0 0 0 0 0 0
Neighs:    1.32006e+06 ave 1.32006e+06 max 1.32006e+06 min
Histogram: 1 0 0 0 0 0 0 0 0 0

Total # of neighbors = 1320064
Ave neighs/atom = 32.6304
Ave special neighs/atom = 1.28736
Neighbor list builds = 1186
Dangerous builds = 0

unfix 			1
unfix 			2
unfix 			30
unfix 			300
unfix 			40
unfix 			400
#undump 			1
###########################################################
############### Post parameters############################
reset_timestep  	0
velocity 		ham create $T 203489
velocity 		ham create 1 203489
velocity 		bread create $T 98372
velocity 		bread create 1 98372
#velocity 		all create $T 293849 mom yes rot yes dist gaussian
fix 			1 all nvt temp $T $T 0.3
fix 			1 all nvt temp 1 $T 0.3
fix 			1 all nvt temp 1 1 0.3
fix_modify 		1 temp myTemp
fix 			30 all wall/reflect zhi EDGE
fix 			300 all wall/reflect zlo EDGE
fix 			40 all wall/reflect xhi EDGE
fix 			400 all wall/reflect xlo EDGE

#compute 		bins ham chunk/atom bin/3d x 2.9 1.021875 y 0.0 1.147 z 30.0 1.0 bound #			x 2.9 35.6 bound y 0.0 34.4 bound z 30.0 45.0
#fix  			d ham ave/chunk 2 5 1000 bins density/number norm sample #			file 5tank_bins_dens.dat

#compute 		bins1 ham chunk/atom bin/3d x 60.0 1 y 0.0 1.1467 z 2.8 1.1392 bound #			x 60.0 90.0 bound y 0.0 34.4 bound z 2.8 29.0
#fix  			d1 ham ave/chunk 2 5 40 bins1 density/number norm sample #			file left_small_bond_bins_dens.dat

#compute 		bins2 ham chunk/atom bin/3d x 120.0 1 y 0.0 1.1467 z 2.8 1.1392 bound #			x 120.0 150.0 bound y 0.0 34.4 bound z 2.8 29.0
#fix  			d2 ham ave/chunk 2 5 40 bins2 density/number norm sample #			file right_small_bond_bins_dens.dat

compute 		MSD ham msd com no average no
fix 			MSD ham ave/time 1 1 10 c_MSD[*] file msd.dat mode vector

thermo_style    	custom step temp pe etotal
thermo_modify	        temp myTemp
thermo			5000
#fix            		extra ham print 1000 "$(step) $(temp) $(pe)" append iteration_info.dat #			screen no

#restart     		100000 water.restart.mpiio
#dump			1 all custom 20000 5tank.dat id type x y z
run		        20000
Per MPI rank memory allocation (min/avg/max) = 49.07 | 49.07 | 49.07 Mbytes
Step Temp PotEng TotEng 
       0   0.99997528    1.2293888    2.7293146 
    5000   0.99971663     1.262981    2.7625189 
   10000   0.99901435    1.2801903    2.7786748 
   15000   0.99542438    1.2814802    2.7745798 
   20000    1.0047684    1.2736993    2.7808147 
Loop time of 376.905 on 16 procs for 20000 steps with 40455 atoms

Performance: 9169.417 tau/day, 53.064 timesteps/s
99.5% CPU use with 1 MPI tasks x 16 OpenMP threads

MPI task timing breakdown:
Section |  min time  |  avg time  |  max time  |%varavg| %total
---------------------------------------------------------------
Pair    | 289.81     | 289.81     | 289.81     |   0.0 | 76.89
Bond    | 8.3296     | 8.3296     | 8.3296     |   0.0 |  2.21
Neigh   | 55.728     | 55.728     | 55.728     |   0.0 | 14.79
Comm    | 1.289      | 1.289      | 1.289      |   0.0 |  0.34
Output  | 0.00074315 | 0.00074315 | 0.00074315 |   0.0 |  0.00
Modify  | 19.762     | 19.762     | 19.762     |   0.0 |  5.24
Other   |            | 1.99       |            |       |  0.53

Nlocal:    40455 ave 40455 max 40455 min
Histogram: 1 0 0 0 0 0 0 0 0 0
Nghost:    6632 ave 6632 max 6632 min
Histogram: 1 0 0 0 0 0 0 0 0 0
Neighs:    1.3099e+06 ave 1.3099e+06 max 1.3099e+06 min
Histogram: 1 0 0 0 0 0 0 0 0 0

Total # of neighbors = 1309901
Ave neighs/atom = 32.3792
Ave special neighs/atom = 1.28736
Neighbor list builds = 1252
Dangerous builds = 0


Total wall time: 0:13:30
