LAMMPS (3 Mar 2020)
  using 2 OpenMP thread(s) per MPI task
## binning x:2.9-35.6, y:0.0-34.7, z:30-45
## binning x:60-90 x:120-150

############################################################
#####	 	    Argon sandwich	   	   #########
############################################################
variable		T equal 1.0
variable 		V equal vol
variable 		dt equal 0.002

units			lj
atom_style		bond
special_bonds 		fene

dimension 		3
boundary		f p f

read_data         	tank_atomdata
  orthogonal box = (0 0 0) to (39.2 34.7 48.2)
  1 by 1 by 1 MPI processor grid
  reading atoms ...
  40455 atoms
  scanning bonds ...
  1 = max bonds/atom
  reading bonds ...
  26040 bonds
  2 = max # of 1-2 neighbors
  2 = max # of special neighbors
  special bonds CPU = 0.00527811 secs
  read_data CPU = 0.080039 secs
#read_restart 		water.restart.mpiio

############################################################
#############INTERACTION PARAMETERS#########################
group                   bread     type 2
10695 atoms in group bread
group                   ham       type 1
29760 atoms in group ham

mass                    2       1.0  ## wall
mass                    1       1.0  ## liquid

neighbor        	0.3 bin
neigh_modify		every 1 delay 10 check yes
################### L-J potential #####################
pair_style              lj/cut  2.5

pair_coeff              1 1  1.0 1.0 2.5
pair_coeff              1 2  0.4 1.0 2.5
pair_coeff              2 2  1.0 1.0 2.5
#################### FENE bond #########################
bond_style 		fene
bond_coeff 		1 10.2478 1.4 1.0 1.0
#################### Harmonic potential ##################
fix 			wall bread spring/self 10000.0

thermo 			10
min_style 		fire
min_modify 		dmax 0.005
minimize 		1.0e-5 1.0e-7 500 10000
WARNING: Using 'neigh_modify every 1 delay 0 check yes' setting during minimization (../min.cpp:190)
Neighbor list info ...
  update every 1 steps, delay 0 steps, check yes
  max neighbors/atom: 2000, page size: 100000
  master list distance cutoff = 2.8
  ghost atom cutoff = 2.8
  binsize = 1.4, bins = 29 25 35
  1 neighbor lists, perpetual/occasional/extra = 1 0 0
  (1) pair lj/cut, perpetual
      attributes: half, newton on
      pair build: half/bin/newton
      stencil: half/bin/3d/newton
      bin: standard
  Parameters for fire: 
    dmax delaystep dtgrow dtshrink alpha0 alphashrink tmax tmin    integrator halfstepback 
    0.005        20    1.1      0.5   0.25        0.99   10 0.02 eulerimplicit          yes 
Per MPI rank memory allocation (min/avg/max) = 21.6 | 21.6 | 21.6 Mbytes
Step Temp E_pair E_mol TotEng Press 
       0            0   -4.1965308    5.9828946    1.7863638   -4.2665182 
      10   0.07519581   -4.2082801     5.832966    1.7374768   -3.9212803 
      20   0.14883891    -4.202735    5.6670864    1.6876042   -3.3290716 
      30   0.22506766   -4.2097358    5.5140039    1.6418612   -2.7969701 
      40   0.30270722   -4.2365742    5.3837805     1.601256   -2.2559911 
      50   0.36889591   -4.2687819    5.2956508    1.5801991   -1.7202294 
      60   0.41381902   -4.3258576    5.2561741    1.5510296   -1.1723339 
      70   0.41788541   -4.3745313    5.2643411    1.5166224   -0.5705751 
      80  0.068689789   -4.4053761     5.283639   0.98129509  -0.49282004 
      90  0.037590639   -4.4041899    5.2766335   0.92882822  -0.61444176 
     100  0.032401093   -4.4024297    5.2703253   0.91649608  -0.72898152 
     110  0.032907127   -4.4081553    5.2698926   0.91109676  -0.75162492 
     120  0.036339265   -4.4167838    5.2708628   0.90858653  -0.74832586 
     130  0.040584465   -4.4263947    5.2710968   0.90557731  -0.75825014 
     140  0.044461114   -4.4348583    5.2704191   0.90225085  -0.78098339 
     150  0.048340034   -4.4430484    5.2694222   0.89888204   -0.8082489 
     160  0.052645212   -4.4520744    5.2682834   0.89517484  -0.83968042 
     170  0.058257789   -4.4638331    5.2668448    0.8903962   -0.8826876 
     180  0.064471519   -4.4777124    5.2652739   0.88426637  -0.93637389 
     190  0.071057043   -4.4922467    5.2638025   0.87813871  -0.99357489 
     200  0.079151732   -4.5087513    5.2622712   0.87224458   -1.0611705 
     210  0.088827982   -4.5286816     5.260757    0.8653141   -1.1434695 
     220  0.098724696    -4.550797    5.2595746   0.85686092   -1.2325628 
     230   0.10677854   -4.5724852    5.2588964   0.84657505   -1.3127778 
     240   0.11294921   -4.5935567    5.2585452   0.83440807   -1.3800638 
     250   0.11802995   -4.6153928    5.2583395   0.81998728    -1.437658 
     260    0.1214147   -4.6383611    5.2582706   0.80202702   -1.4857879 
     270   0.12102766   -4.6601864    5.2583399   0.77969047   -1.5158788 
     280    0.1170351   -4.6808941    5.2584744   0.75312867   -1.5232259 
     290   0.10973163   -4.6982567    5.2585183   0.72485497   -1.5079268 
     300   0.10227859   -4.7143159    5.2584701   0.69756828   -1.4745385 
     310  0.094862652    -4.728147    5.2584525   0.67259592   -1.4362513 
     320  0.088425224   -4.7399719    5.2584879   0.65115056   -1.4021104 
     330  0.084015028    -4.751768    5.2586017    0.6328532   -1.3717105 
     340  0.081133044   -4.7637361    5.2588348    0.6167953   -1.3481498 
     350  0.079349163   -4.7757985    5.2591972   0.60241954   -1.3342844 
     360  0.078444943   -4.7879953    5.2596668   0.58933609   -1.3309894 
     370  0.078013192   -4.7997524    5.2601794   0.57744389   -1.3361965 
     380  0.077992361   -4.8110991    5.2606819    0.5665684   -1.3461341 
     390  0.078404918   -4.8221553     5.261138   0.55658715   -1.3567875 
     400  0.079552031   -4.8335642    5.2615318   0.54729264   -1.3648576 
     410  0.080859724   -4.8447032    5.2618404   0.53842378     -1.36713 
     420  0.082373465   -4.8556779    5.2620977   0.52997695   -1.3625811 
     430  0.084100196   -4.8664179     5.262338   0.52206733   -1.3516422 
     440  0.086026457    -4.877075    5.2625731   0.51453459   -1.3356123 
     450  0.088155355   -4.8876554    5.2627838    0.5073582   -1.3167802 
     460  0.090584791   -4.8983076    5.2629811   0.50054733   -1.2969379 
     470   0.09253966   -4.9078383    5.2631427   0.49411051   -1.2810393 
     480  0.094552027   -4.9169927    5.2633293   0.48816111   -1.2678188 
     490  0.096770306   -4.9263494    5.2636242   0.48242665   -1.2554861 
     500  0.098705521   -4.9350419    5.2640793   0.47709204   -1.2439752 
Loop time of 15.0648 on 2 procs for 500 steps with 40455 atoms

100.0% CPU use with 1 MPI tasks x 2 OpenMP threads

Minimization stats:
  Stopping criterion = max iterations
  Energy initial, next-to-last, final = 
         1.78636384486     0.329867140216     0.329037423718
  Force two-norm initial, final = 2857.92 823.291
  Force max component initial, final = 29.0408 29.7417
  Final line search alpha, max atom move = 0 0
  Iterations, force evaluations = 500 501

MPI task timing breakdown:
Section |  min time  |  avg time  |  max time  |%varavg| %total
---------------------------------------------------------------
Pair    | 13.064     | 13.064     | 13.064     |   0.0 | 86.72
Bond    | 0.71003    | 0.71003    | 0.71003    |   0.0 |  4.71
Neigh   | 0.78849    | 0.78849    | 0.78849    |   0.0 |  5.23
Comm    | 0.023422   | 0.023422   | 0.023422   |   0.0 |  0.16
Output  | 0.0061171  | 0.0061171  | 0.0061171  |   0.0 |  0.04
Modify  | 0.068206   | 0.068206   | 0.068206   |   0.0 |  0.45
Other   |            | 0.4042     |            |       |  2.68

Nlocal:    40455 ave 40455 max 40455 min
Histogram: 1 0 0 0 0 0 0 0 0 0
Nghost:    5653 ave 5653 max 5653 min
Histogram: 1 0 0 0 0 0 0 0 0 0
Neighs:    1.37926e+06 ave 1.37926e+06 max 1.37926e+06 min
Histogram: 1 0 0 0 0 0 0 0 0 0

Total # of neighbors = 1379265
Ave neighs/atom = 34.0938
Ave special neighs/atom = 1.28736
Neighbor list builds = 17
Dangerous builds = 0
