LAMMPS (3 Mar 2020)
  using 8 OpenMP thread(s) per MPI task
## binning x:60-160, y:0.0-34.4, z:2.8-29.0
## binning x:60-90 x:120-150

############################################################
#####	 	    Argon sandwich	   	   #########
############################################################
variable		T equal 1.0
variable 		V equal vol
variable 		dt equal 0.002

units			lj
atom_style		bond
special_bonds 		fene

dimension 		3
boundary		p p f

read_data 		bond_atomdata
  orthogonal box = (0 0 0) to (196.5 34.408 31.44)
  4 by 1 by 1 MPI processor grid
  reading atoms ...
  81390 atoms
  scanning bonds ...
  1 = max bonds/atom
  reading bonds ...
  42735 bonds
  2 = max # of 1-2 neighbors
  2 = max # of special neighbors
  special bonds CPU = 0.00644088 secs
  read_data CPU = 0.147567 secs
#read_data 		bond_atomdata_small
#read_data		atomdata
#read_data         	atomdata_small
#read_restart 		water.restart.mpiio

############################################################
#############INTERACTION PARAMETERS#########################
group                   bread     type 2
32550 atoms in group bread
group                   ham       type 1
48840 atoms in group ham

mass                    2       1.0  ## atomic mass of platinum
mass                    1       1.0  ## atomic mass of platinum

neighbor        	0.3 bin
neigh_modify		every 1 delay 10 check yes
################### L-J potential #####################
pair_style              lj/cut  2.5

pair_coeff              1 1  1.0 1.0 2.5
pair_coeff              1 2  0.8 1.0 2.5
pair_coeff              2 2  1.0 1.0 2.5
#################### FENE bond #########################
bond_style 		fene
bond_coeff 		1 10.2478 1.4 1.0 1.0
#################### Harmonic potential ##################
fix 			wall bread spring/self 10000.0

thermo 			10
min_style 		fire
min_modify 		dmax 0.01
minimize 		1.0e-5 1.0e-7 500 10000
WARNING: Using 'neigh_modify every 1 delay 0 check yes' setting during minimization (../min.cpp:190)
Neighbor list info ...
  update every 1 steps, delay 0 steps, check yes
  max neighbors/atom: 2000, page size: 100000
  master list distance cutoff = 2.8
  ghost atom cutoff = 2.8
  binsize = 1.4, bins = 141 25 23
  1 neighbor lists, perpetual/occasional/extra = 1 0 0
  (1) pair lj/cut, perpetual
      attributes: half, newton on
      pair build: half/bin/newton
      stencil: half/bin/3d/newton
      bin: standard
  Parameters for fire: 
    dmax delaystep dtgrow dtshrink alpha0 alphashrink tmax tmin    integrator halfstepback 
    0.01        20    1.1      0.5   0.25        0.99   10 0.02 eulerimplicit          yes 
Per MPI rank memory allocation (min/avg/max) = 19.86 | 25.65 | 32.55 Mbytes
Step Temp E_pair E_mol TotEng Press 
       0            0     1.721772    9.8830208    11.604793     3.602958 
      10   0.33200144  -0.34058477    9.2777447     9.435156    1.2223453 
      20   0.92811092  -0.80636181    8.3607303    8.9465177    1.6550233 
      30    1.5958285   -1.4984628    7.6717449    8.5669955    1.3756471 
      40    2.2841414   -2.2742282    7.0768186    8.2287604   0.78797668 
      50    2.8414952   -2.9091005    6.5918089    7.9448988   0.27603517 
      60    3.2201562   -3.3399187     6.226165    7.7164212 -0.063444899 
      70    3.4364007   -3.5993377    5.9302533    7.4854534  -0.22185621 
      80    3.4613791    -3.742761    5.6730891    7.1223329   -0.2680074 
      90    3.4076649   -3.8351527    5.4318113    6.7080931  -0.25643016 
     100    3.3607925    -3.891015    5.2338251    6.3839369  -0.19382794 
     110    3.2057018   -3.9137471    5.0979389    5.9926854  -0.14335056 
     120    3.0152023   -3.9249051    5.0012133    5.5990559   -0.1149762 
     130    2.8604915   -3.9343595    4.9252582    5.2815832 -0.088467423 
     140    2.7197983   -3.9453554    4.8578391     4.992131 -0.057417225 
     150    2.5315122   -3.9622084    4.7901145    4.6251277 -0.030604071 
     160    2.3250777   -3.9880536    4.7304325    4.2299526 -0.021197102 
     170    2.1508954   -4.0240127    4.6747478    3.8770385 -0.011950098 
     180    1.9403065   -4.0660982    4.6210858    3.4654116 -0.020812333 
     190     1.683769   -4.1127038    4.5682093    2.9811279 -0.048365258 
     200    1.3927827   -4.1437009    4.5260806     2.471528 -0.099779635 
     210     1.146931   -4.1627115    4.4827915    2.0404554  -0.13758909 
     220    0.9411699   -4.1734206    4.4394406    1.6777575  -0.16198876 
     230   0.75714498   -4.1836617    4.3994029    1.3514447  -0.18272536 
     240   0.61915098   -4.1992681    4.3646814    1.0941284   -0.1909353 
     250    0.5085296   -4.2183106    4.3363091   0.88078353   -0.1838624 
     260   0.40786005   -4.2384299    4.3169797   0.69033234  -0.16652312 
     270   0.32035994   -4.2580262    4.3068649   0.52937266  -0.14367797 
     280   0.24836496   -4.2752315    4.3033004   0.40061171  -0.11744528 
     290   0.19366569   -4.2913821    4.3035322   0.30264507  -0.09328846 
     300   0.15163986   -4.3037186    4.3043495   0.22808794 -0.072725281 
     310   0.12126798   -4.3120064    4.3027142   0.17260754 -0.072174506 
     320   0.10362201   -4.3225071    4.3001682   0.13309221 -0.094361705 
     330  0.090978791   -4.3331021    4.2983539   0.10171827  -0.12600795 
     340  0.082172311    -4.344907    4.2978904  0.076240311  -0.15761383 
     350  0.077911895   -4.3591863    4.2979717  0.055651843  -0.18047707 
     360  0.075884501   -4.3735683    4.2977889  0.038045948  -0.19344917 
     370  0.073924682    -4.385757    4.2973818  0.022510481  -0.19843686 
     380  0.071293143   -4.3955946    4.2968947 0.0082384243  -0.19478339 
     390  0.067838304   -4.4033503    4.2969887 -0.004605436   -0.1864856 
     400   0.06583742   -4.4121526    4.2975608 -0.015836898   -0.1804135 
     410  0.065422797   -4.4219145    4.2981691 -0.025612443  -0.17797131 
     420  0.065107417   -4.4304867    4.2983962 -0.034430599  -0.17694664 
     430  0.064716945   -4.4376967    4.2981766  -0.04244596   -0.1775651 
     440  0.064704146   -4.4446209    4.2977781 -0.049787719  -0.18132425 
     450   0.06591635   -4.4533165    4.2977851 -0.056658105  -0.18682247 
     460  0.067100253   -4.4622813    4.2985176 -0.063114534  -0.18471928 
     470  0.067977717   -4.4697402    4.2987298 -0.069045065   -0.1753846 
     480  0.069442918   -4.4772626    4.2987085 -0.074391026  -0.16473748 
     490  0.070643331   -4.4846621    4.2991869 -0.079511485  -0.15263843 
     500  0.072039616    -4.491867    4.2996155  -0.08419339  -0.13909269 
Loop time of 14.7557 on 32 procs for 500 steps with 81390 atoms

94.8% CPU use with 4 MPI tasks x 8 OpenMP threads

Minimization stats:
  Stopping criterion = max iterations
  Energy initial, next-to-last, final = 
         11.6047928243    -0.191528458089    -0.192251486217
  Force two-norm initial, final = 140683 1436.38
  Force max component initial, final = 3060.06 34.4817
  Final line search alpha, max atom move = 0 0
  Iterations, force evaluations = 500 502

MPI task timing breakdown:
Section |  min time  |  avg time  |  max time  |%varavg| %total
---------------------------------------------------------------
Pair    | 1.2597     | 5.2582     | 10.757     | 180.3 | 35.64
Bond    | 0.00013065 | 0.2869     | 0.68697    |  55.6 |  1.94
Neigh   | 1.4694     | 1.5079     | 1.5366     |   2.0 | 10.22
Comm    | 1.2092     | 5.8609     | 10.826     | 148.1 | 39.72
Output  | 0.029633   | 0.031736   | 0.03413    |   1.1 |  0.22
Modify  | 0.030174   | 0.036942   | 0.044217   |   3.4 |  0.25
Other   |            | 1.773      |            |       | 12.02

Nlocal:    20347.5 ave 37544 max 7998 min
Histogram: 2 0 0 0 0 0 1 0 0 1
Nghost:    5389.5 ave 9128 max 2400 min
Histogram: 2 0 0 0 0 0 0 1 0 1
Neighs:    670051 ave 1.29867e+06 max 215946 min
Histogram: 2 0 0 0 0 0 1 0 0 1

Total # of neighbors = 2680204
Ave neighs/atom = 32.9304
Ave special neighs/atom = 1.05013
Neighbor list builds = 33
Dangerous builds = 0

############################################################
#############EQUILIBRATION PARAMETERS######################
velocity 		all create ${T} 12345
velocity 		all create 1 12345
compute 		myTemp all temp
fix			1 all nvt temp ${T} ${T} 100.0
fix			1 all nvt temp 1 ${T} 100.0
fix			1 all nvt temp 1 1 100.0
fix 			2 all langevin 1 1 10 100000
fix 			30 all wall/reflect zhi EDGE
fix 			300 all wall/reflect zlo EDGE
timestep 		${dt}
timestep 		0.002
thermo 			100

dump 			1 all custom 100 ssmall_equ_cutoff_bond_sandwich.dat id type x y z
run 			40000
Per MPI rank memory allocation (min/avg/max) = 22.96 | 29.09 | 36.76 Mbytes
Step Temp E_pair E_mol TotEng Press 
     500            1    -4.491867    4.2996155    1.3077301   0.21620345 
     600   0.41065577   -4.2415054    4.4387979   0.81326859   0.32836921 
     700   0.61599779   -4.2395113    4.4335891    1.1180631   0.22454793 
     800   0.61596686   -4.2335033    4.4354438    1.1258794   0.12020325 
     900   0.49887883   -4.2242434    4.4402784   0.96434406  0.067328359 
    1000   0.68857408   -4.2291875    4.4435102     1.247171   0.13809311 
    1100   0.52664565   -4.2323997    4.4464243    1.0039834  0.078790942 
    1200   0.66034104   -4.2315148    4.4493323    1.2083169   0.13525644 
    1300   0.61976208   -4.2363831    4.4515259    1.1447746   0.15316923 
    1400   0.61574226    -4.238588    4.4570228    1.1420368   0.16053977 
    1500   0.66723879   -4.2405216    4.4564771    1.2168014   0.19932904 
    1600    0.6537165   -4.2421818     4.460312    1.1986929   0.20533821 
    1700   0.64829094   -4.2454739    4.4628917    1.1898423   0.20587577 
    1800   0.69391557   -4.2505974    4.4656046    1.2558677   0.23085743 
    1900   0.68617157   -4.2504758     4.468576    1.2473449   0.23958566 
    2000   0.66364399    -4.252955    4.4686757    1.2111745   0.24163504 
    2100   0.75136688   -4.2557443     4.472077    1.3433692   0.27712073 
    2200   0.66118687    -4.252518    4.4739546    1.2132047   0.27307181 
    2300   0.73891409   -4.2565083     4.475725    1.3275742   0.29213168 
    2400    0.7323258   -4.2545961    4.4760583    1.3199374   0.31839098 
    2500    0.6997808   -4.2565339    4.4781463    1.2712707   0.30005809 
    2600    0.7808358   -4.2615821    4.4805783    1.3902356   0.35064218 
    2700   0.71708596   -4.2616513    4.4848736     1.298838   0.34017625 
    2800   0.75918672   -4.2622223    4.4865663    1.3631101   0.35501112 
    2900   0.77404975   -4.2651837    4.4859077    1.3817843   0.36209107 
    3000   0.74814365   -4.2619749    4.4884339    1.3486607   0.36965568 
    3100   0.78458368   -4.2633316    4.4907259    1.4042553   0.39052616 
    3200   0.78258626   -4.2681057    4.4913331    1.3970924   0.38713679 
    3300   0.77169752   -4.2676904    4.4929137    1.3827554   0.39915064 
    3400   0.81182431   -4.2688483    4.4942538     1.443127   0.42681182 
    3500   0.78329082   -4.2659122    4.4944292    1.4034388   0.41490867 
    3600   0.80652741   -4.2708331    4.4963015    1.4352447   0.42560611 
    3700    0.8123515   -4.2690322    4.5008347    1.4503148   0.42689526 
    3800   0.80082167   -4.2673556    4.4975106    1.4313727   0.41651501 
    3900   0.82510488   -4.2704705    4.5030679    1.4702395     0.434615 
    4000   0.81333715   -4.2678865    4.5026563    1.4547605   0.43790878 
    4100   0.82425078   -4.2657606    4.5034192    1.4740197   0.46223614 
    4200   0.82867803   -4.2658823    4.5048499    1.4819694   0.47161948 
    4300   0.83297092   -4.2684734    4.5050271    1.4859947   0.46529401 
    4400   0.82941266   -4.2655508    4.5060339    1.4845868   0.46695769 
    4500   0.85276869   -4.2655243    4.5073517    1.5209647   0.48959856 
    4600   0.83100801   -4.2698666    4.5118703    1.4885004   0.49066845 
    4700   0.85410315   -4.2648896    4.5094578    1.5257072   0.50307404 
    4800   0.85462753   -4.2660487    4.5122262    1.5281031   0.51684648 
    4900   0.84654873   -4.2717704    4.5115961    1.5096332   0.49933566 
    5000   0.87786005   -4.2695193     4.512851    1.5601056   0.52691997 
    5100   0.85244114   -4.2656172    4.5125596    1.5255884   0.52617546 
    5200   0.87573784   -4.2701209    4.5162722    1.5597419   0.53966632 
    5300   0.86985319   -4.2691072    4.5174808    1.5531373   0.55261672 
    5400   0.87094424   -4.2654759    4.5182498    1.5591742   0.56292235 
    5500   0.88431735   -4.2722225    4.5183129    1.5725501   0.56909458 
    5600   0.87678474   -4.2728794    4.5200233    1.5623048   0.56960026 
    5700   0.88967225   -4.2707302    4.5222244    1.5859861   0.57990721 
    5800   0.88429987   -4.2750038    4.5237607    1.5751904    0.5799827 
    5900   0.89331395   -4.2712117    4.5226356    1.5913783   0.58790729 
    6000   0.88850311    -4.268262    4.5233544    1.5878306   0.59743197 
    6100   0.89957197   -4.2725773    4.5249302    1.6016942    0.5965338 
    6200   0.89780119    -4.275111     4.523917    1.5954912    0.6114759 
    6300   0.89988029   -4.2729329    4.5272346    1.6041056   0.62892346 
    6400   0.91157947   -4.2747976    4.5248678    1.6174226   0.63879505 
    6500   0.90281032   -4.2767692    4.5254205    1.6028502   0.64225638 
    6600   0.91678137   -4.2782038    4.5287945    1.6257459    0.6529987 
    6700   0.90892396   -4.2762732    4.5291701     1.616266   0.65467116 
    6800    0.9167527   -4.2774883    4.5296198    1.6272437   0.65894236 
    6900   0.91579063   -4.2789666    4.5305305     1.625233    0.6642438 
    7000   0.92021791   -4.2752932    4.5280668    1.6330835    0.6830146 
    7100    0.9208864   -4.2742967    4.5321133    1.6391292   0.65687424 
    7200   0.92555506   -4.2847452    4.5342316    1.6378019   0.66888307 
    7300   0.92570224   -4.2787208    4.5361426    1.6459581   0.68155931 
    7400   0.92617787   -4.2746161    4.5321525    1.6467862   0.69639642 
    7500    0.9314928    -4.285027    4.5360458    1.6482408   0.66918855 
    7600   0.93192905   -4.2796072    4.5354566    1.6537258   0.69659942 
    7700   0.93549123   -4.2819975    4.5356247    1.6568468   0.69081541 
    7800   0.93537046   -4.2832657    4.5355768    1.6553495   0.68945205 
    7900   0.93439021   -4.2785215    4.5371429    1.6601894   0.69333707 
    8000    0.9362233   -4.2752698    4.5366872    1.6657351   0.69919481 
    8100   0.93994518   -4.2778893    4.5363623    1.6683735   0.69340395 
    8200   0.93747775    -4.276993    4.5354472    1.6646536   0.68997505 
    8300    0.9452363   -4.2714739     4.533847    1.6802101   0.69241865 
    8400   0.93934025   -4.2739371    4.5377594    1.6728154   0.68251764 
    8500   0.94210752    -4.274679    4.5350409    1.6735059   0.68252357 
    8600   0.94566883   -4.2675371    4.5334543     1.684403   0.69309106 
    8700   0.93848164   -4.2682492    4.5399192    1.6793752   0.67456507 
    8800   0.94624099   -4.2713177    4.5357998    1.6838262    0.6826192 
    8900    0.9460816   -4.2683735    4.5345287    1.6852601   0.66773715 
    9000   0.94705214   -4.2655875     4.536142    1.6911153     0.667493 
    9100   0.94408518    -4.259867     4.530998    1.6872414   0.66998271 
    9200   0.94994322   -4.2636794    4.5345035    1.6957214   0.65515328 
    9300   0.94899375   -4.2592308    4.5345368    1.6987791   0.65564562 
    9400   0.94706275   -4.2604676    4.5376211    1.6977301   0.65371885 
    9500   0.94872297   -4.2588296    4.5380332    1.7022706   0.64775539 
    9600   0.94394181   -4.2484287    4.5344973    1.7019639    0.6451686 
    9700   0.95390587   -4.2535499    4.5350963    1.7123877   0.63045061 
    9800   0.94659958    -4.251645    4.5322487    1.7004857   0.62075195 
    9900   0.95074292   -4.2434243    4.5348407    1.7175133   0.63234194 
   10000   0.94787432   -4.2428534    4.5334218    1.7123624   0.63524269 
   10100   0.94952311   -4.2477389    4.5334033    1.7099315   0.61239935 
   10200   0.94942635   -4.2377388    4.5358263    1.7222095   0.61606563 
   10300   0.94733605   -4.2357453    4.5335647    1.7188061   0.62016367 
   10400   0.95290676   -4.2395771    4.5317741    1.7215396   0.60810006 
   10500   0.94841059   -4.2345371    4.5334556    1.7215169   0.60026058 
   10600   0.94734652   -4.2291494    4.5383001    1.7301531   0.60511237 
   10700   0.94540823    -4.229399     4.537584      1.72628   0.60500119 
   10800   0.94945598   -4.2294228    4.5350685    1.7298122   0.60455829 
   10900     0.948384   -4.2230334    4.5334191    1.7329443   0.59825647 
   11000   0.94944696   -4.2239892    4.5366746    1.7368383   0.57402061 
   11100   0.94828612   -4.2266676    4.5355183    1.7312624    0.5739518 
   11200    0.9468908    -4.212089    4.5337532     1.741983   0.57797134 
   11300   0.94807976    -4.212526     4.536357    1.7459332    0.5756727 
   11400   0.94739231   -4.2202839    4.5315076    1.7322947    0.5713665 
   11500   0.95274177   -4.2136877    4.5342287    1.7496361   0.57409759 
   11600    0.9502848   -4.2087461    4.5322791    1.7489427   0.57728601 
   11700   0.94803145   -4.2117018     4.533663     1.743991   0.56540012 
   11800   0.95106209   -4.2063764    4.5338713    1.7540705   0.56045164 
   11900   0.94751546   -4.2023907    4.5373377    1.7562027   0.56923735 
   12000   0.95242194   -4.2055686    4.5337171    1.7567639   0.56622285 
   12100   0.95233088   -4.2013149     4.530998    1.7581618   0.55236934 
   12200   0.95066482   -4.1935355     4.530899    1.7633432   0.56995805 
   12300   0.95486425   -4.1979255    4.5309101    1.7652634   0.54490122 
   12400   0.95067142   -4.1963281    4.5340172    1.7636787   0.54140498 
   12500   0.94965475   -4.1904919    4.5370307    1.7710035   0.55383395 
   12600   0.95523831   -4.1864928     4.532086    1.7784331   0.55573567 
   12700   0.95251934    -4.194391    4.5336769    1.7680473   0.53350857 
   12800   0.95552636   -4.1839129    4.5309159     1.780275   0.54563507 
   12900   0.95624544   -4.1828305    4.5341373    1.7856573   0.54579211 
   13000   0.95562193   -4.1887962     4.531104    1.7757231   0.54035693 
   13100   0.95968705   -4.1861901    4.5342714    1.7875941   0.53851981 
   13200   0.95086096   -4.1769763    4.5368144     1.786112   0.53825294 
   13300   0.95410709    -4.178965    4.5368505    1.7890286   0.52510505 
   13400   0.95546654    -4.179448     4.534207    1.7879412   0.52442857 
   13500   0.95481146   -4.1728616    4.5337678    1.7931058   0.53723404 
   13600   0.95469779   -4.1724793    4.5333971    1.7929468   0.54222635 
   13700   0.95777606   -4.1756746    4.5299557    1.7909275   0.53082074 
   13800   0.95456445   -4.1680009    4.5348846    1.7987128   0.53599242 
   13900   0.95874463   -4.1704002    4.5336496    1.8013487   0.52127429 
   14000   0.96045784   -4.1730976    4.5336526     1.801224   0.51334403 
   14100   0.95760823   -4.1659663    4.5328044    1.8032328   0.51252495 
   14200   0.95886731   -4.1594865    4.5332598    1.8120566    0.5271688 
   14300   0.95913379   -4.1632998    4.5305266    1.8059097   0.51232681 
   14400   0.95704781   -4.1633939    4.5353347    1.8074948    0.5122904 
   14500   0.96364996   -4.1636794    4.5370012    1.8187789   0.50587473 
   14600    0.9591448   -4.1576424    4.5336636    1.8147207   0.51629451 
   14700   0.96223603   -4.1634049    4.5364109    1.8163423   0.49690248 
   14800    0.9642289   -4.1558954    4.5330556    1.8234858   0.51158651 
   14900   0.96374334   -4.1545378     4.534191    1.8252505   0.51247815 
   15000   0.96177392   -4.1553172     4.537055     1.824381   0.50600198 
   15100   0.96411627   -4.1536052    4.5371239    1.8296753   0.50532076 
   15200   0.96456152   -4.1505207    4.5357317    1.8320355    0.5101582 
   15300    0.9604128   -4.1516379    4.5381715    1.8271351   0.51448203 
   15400   0.96431514   -4.1483263    4.5376524     1.835781   0.52430297 
   15500   0.96430036   -4.1455497    4.5364467    1.8373298   0.51195805 
   15600   0.96918777   -4.1516345    4.5341767     1.836306   0.50287777 
   15700   0.97055024   -4.1493029    4.5332692    1.8397737   0.53201938 
   15800    0.9675171   -4.1430813    4.5361886    1.8443651   0.52723657 
   15900   0.96657344   -4.1436855    4.5356586    1.8418155   0.52773612 
   16000   0.97254764   -4.1484061    4.5362867    1.8466842   0.51248299 
   16100   0.96945067   -4.1417542     4.536033    1.8484369   0.52415114 
   16200   0.97071767   -4.1415956    4.5363766    1.8508396   0.52098208 
   16300   0.97158495    -4.143305     4.538565    1.8526195   0.52459714 
   16400   0.97163325   -4.1433341    4.5385209    1.8526187   0.51233552 
   16500   0.97457987   -4.1412065    4.5379742    1.8586195   0.50857443 
   16600   0.97299339    -4.142981    4.5390566    1.8555477   0.50350861 
   16700   0.97138191    -4.138534    4.5384261    1.8569471   0.52879431 
   16800   0.97344303   -4.1358065    4.5376501    1.8619902   0.52782958 
   16900   0.97413124   -4.1360715    4.5369863    1.8620937   0.51939989 
   17000   0.97272169   -4.1366821    4.5361356    1.8585181   0.51934872 
   17100   0.97231305   -4.1335323    4.5399143    1.8648337   0.52142173 
   17200   0.97401173    -4.133768    4.5383065    1.8655381   0.51059483 
   17300   0.97558428   -4.1379964    4.5379587    1.8633207   0.50986227 
   17400   0.97681277   -4.1341787    4.5403953    1.8714178   0.52823995 
   17500    0.9759755   -4.1303665    4.5404127    1.8739915   0.53274313 
   17600   0.97882322   -4.1378173    4.5383271    1.8687267   0.50777316 
   17700   0.97424658   -4.1297825    4.5375436     1.869113   0.52453593 
   17800   0.97488225   -4.1247905    4.5343738    1.8718887   0.52154467 
   17900   0.97517511   -4.1307572    4.5361152    1.8681027   0.50812889 
   18000   0.97672712   -4.1294433    4.5385001    1.8741295   0.52576619 
   18100   0.97695687   -4.1272778     4.537607    1.8757465   0.52694627 
   18200   0.97535054   -4.1263825     4.537188    1.8738133    0.5373775 
   18300   0.97902645   -4.1271686    4.5402684    1.8816214    0.5272371 
   18400   0.97545734   -4.1259642    4.5397014    1.8769052   0.51345379 
   18500    0.9800686   -4.1294809    4.5408563    1.8814602   0.51071418 
   18600   0.97835514    -4.123247    4.5370666    1.8813344   0.49385349 
   18700   0.97956152   -4.1249366    4.5398949    1.8842826   0.50078188 
   18800   0.98043903   -4.1244461     4.541774    1.8879683   0.51960955 
   18900   0.97863466   -4.1246947    4.5408899    1.8841292    0.5121005 
   19000   0.98158393   -4.1217125    4.5402868    1.8909321   0.52312702 
   19100   0.98508321   -4.1249458    4.5391969    1.8918578   0.50854155 
   19200   0.98319029   -4.1256327     4.539281    1.8884156   0.49993306 
   19300   0.98010638   -4.1156521      4.54107    1.8955594   0.52440694 
   19400   0.98044915   -4.1183471    4.5395993    1.8919078   0.51854033 
   19500   0.98175475   -4.1210696    4.5411461    1.8926905   0.51090633 
   19600   0.98398981   -4.1221303    4.5400771    1.8939134   0.50171006 
   19700   0.97976479   -4.1180455    4.5397131    1.8912968   0.50196263 
   19800   0.98215948    -4.118607      4.54113    1.8957441   0.49248583 
   19900   0.98327667   -4.1157172    4.5365603      1.89574   0.51153246 
   20000   0.98169046   -4.1135376     4.539174     1.898154   0.51252915 
   20100   0.97970115   -4.1130285    4.5415761    1.8980812   0.51026117 
   20200   0.98481718   -4.1144118    4.5376109    1.9004067   0.49766641 
   20300   0.98320184   -4.1132243    4.5409559    1.9025162   0.50657095 
   20400   0.97956667   -4.1098841    4.5404547    1.8999026   0.51508516 
   20500   0.98368653   -4.1100109     4.539133    1.9046337   0.50608036 
   20600    0.9834634   -4.1102828    4.5379405    1.9028347    0.5047504 
   20700   0.98196557   -4.1083693    4.5411604    1.9057213   0.51254617 
   20800    0.9830091   -4.1050321    4.5373922    1.9068556   0.50249797 
   20900   0.97945339   -4.1040224     4.541569    1.9067086   0.51170046 
   21000   0.98345529   -4.1067972    4.5379308    1.9062985    0.5013099 
   21100   0.98487594    -4.104025    4.5399269    1.9131976   0.50979541 
   21200   0.98253861    -4.106559    4.5383028    1.9055337   0.47727794 
   21300   0.98259869   -4.1036455    4.5410333    1.9112677   0.48530921 
   21400    0.9873639   -4.1016527    4.5387284    1.9181034   0.51295716 
   21500   0.98415738   -4.1059051    4.5386405    1.9089533   0.50216503 
   21600   0.98467509   -4.1030715    4.5409887    1.9149117   0.50690311 
   21700   0.98374468   -4.0996167    4.5406626    1.9166448   0.51183549 
   21800   0.98408209   -4.1020055    4.5399683    1.9140678   0.50995645 
   21900   0.98494744   -4.1080854    4.5422346    1.9115522   0.48178399 
   22000   0.98582393     -4.10124    4.5414449    1.9189226   0.49404468 
   22100   0.98449334   -4.0991545    4.5415936    1.9191609   0.50801285 
   22200   0.98361037   -4.1045031    4.5423636     1.913258   0.49125231 
   22300   0.98461399   -4.0973491    4.5386719    1.9182256   0.49568285 
   22400    0.9827124   -4.0947974    4.5432567    1.9225098   0.49619402 
   22500   0.98244313   -4.0968492    4.5409013    1.9176987   0.49438065 
   22600   0.98726595   -4.0986875    4.5401206    1.9223138   0.48914143 
   22700    0.9872446   -4.0964691    4.5414623    1.9258418   0.49366065 
   22800   0.98582812   -4.0970343    4.5401142    1.9218039   0.50060468 
   22900   0.98681144   -4.0945545    4.5390669    1.9247113   0.49953866 
   23000   0.98483492   -4.0927498    4.5404185     1.924903   0.49636325 
   23100   0.98379858   -4.0936111    4.5452094    1.9272781   0.48753719 
   23200   0.98696533   -4.0981194    4.5426497    1.9249601   0.48667232 
   23300   0.98796399   -4.0917982    4.5396793    1.9298089   0.49847664 
   23400   0.98811059   -4.0925498    4.5400863    1.9296842   0.49747034 
   23500    0.9836817   -4.0931061    4.5433719    1.9257702   0.47928637 
   23600    0.9823853   -4.0855393    4.5441758    1.9321963   0.49223741 
   23700   0.98232957   -4.0881292    4.5419496    1.9272966   0.48382696 
   23800   0.98745186   -4.0934706    4.5418698    1.9295587   0.48409219 
   23900    0.9808493   -4.0867948    4.5440874    1.9285485    0.5012258 
   24000   0.98669265    -4.085668     4.538498    1.9328508    0.4895277 
   24100   0.98656269   -4.0886969    4.5397363    1.9308653   0.48431602 
   24200   0.98136308   -4.0855294    4.5431052    1.9296024   0.48611311 
   24300   0.98586644   -4.0832092    4.5422479    1.9378202   0.48421108 
   24400   0.98349044   -4.0844506    4.5408864    1.9316533   0.49142428 
   24500   0.98722534    -4.086604    4.5401563    1.9343721   0.47376565 
   24600   0.98858649   -4.0795551    4.5401076     1.943414   0.47854327 
   24700   0.98672915   -4.0828627    4.5423102     1.939523   0.48415781 
   24800   0.98732687   -4.0814354    4.5403279    1.9398645   0.47302623 
   24900     0.986224   -4.0773977    4.5441908     1.946111   0.48186873 
   25000   0.98221775    -4.076624    4.5460909    1.9427754   0.47889252 
   25100   0.98470679   -4.0810918    4.5441361    1.9400863   0.45308962 
   25200   0.98492513   -4.0712573    4.5431432    1.9492555   0.48210623 
   25300   0.98752773   -4.0754772    4.5420752    1.9478713   0.47139494 
   25400   0.98983255   -4.0820615    4.5424834    1.9451525   0.45930767 
   25500   0.98449767   -4.0754564     4.544546    1.9458179   0.47103778 
   25600   0.98697601   -4.0703859    4.5422365    1.9522965   0.46975522 
   25700   0.98561063   -4.0749696    4.5415516    1.9449798   0.46907605 
   25800    0.9876408   -4.0766868     4.538914    1.9436702   0.46825209 
   25900   0.98718264   -4.0686561     4.539018    1.9511176   0.48507817 
   26000   0.98565836   -4.0745449    4.5424289    1.9463534   0.47582286 
   26100   0.98509957   -4.0750122    4.5417929    1.9444119   0.47105988 
   26200   0.98420453   -4.0661159    4.5418839    1.9520566   0.48682017 
   26300   0.98605464   -4.0691962    4.5389535    1.9488211   0.47390363 
   26400   0.98481322    -4.075031    4.5432874     1.945458   0.46734222 
   26500   0.98443746   -4.0672766    4.5424032    1.9517647   0.47273527 
   26600   0.98664182   -4.0680613    4.5422075    1.9540907   0.47619492 
   26700   0.98602884   -4.0724285     4.539622    1.9462186   0.45243643 
   26800   0.98563277   -4.0689598    4.5424724    1.9519436   0.46185804 
   26900   0.98382911   -4.0635378     4.539941    1.9521288   0.46274529 
   27000   0.98478374   -4.0732915    4.5419181    1.9457841   0.44929664 
   27100   0.98507608   -4.0677487    4.5396761    1.9495234   0.46262973 
   27200   0.98104234   -4.0603951    4.5414823    1.9526327   0.48333749 
   27300   0.98557444   -4.0694185    4.5414304    1.9503554   0.46565961 
   27400   0.98527931   -4.0735315    4.5426069    1.9469762   0.45215324 
   27500    0.9849599   -4.0643792    4.5401446    1.9531871   0.47467023 
   27600   0.98429906   -4.0634825     4.540963    1.9539109   0.46537122 
   27700   0.98371692   -4.0678859    4.5391468    1.9468182   0.43979877 
   27800   0.98699911   -4.0635417    4.5403043    1.9572431   0.44024349 
   27900   0.98243438   -4.0603157    4.5401474    1.9534651   0.44549294 
   28000   0.98612761   -4.0658878    4.5400597    1.9533451   0.44720468 
   28100   0.98310724   -4.0619131     4.542675    1.9554046    0.4561634 
   28200   0.98377647    -4.058665    4.5421528    1.9591343   0.45838266 
   28300   0.98549164   -4.0652214     4.542609    1.9556069   0.45138727 
   28400   0.98419886   -4.0675402    4.5448043    1.9535443   0.44992324 
   28500   0.98525421   -4.0587193    4.5418397    1.9609835   0.48164692 
   28600   0.98317006   -4.0631031    4.5444899    1.9561237   0.47243314 
   28700   0.98449255   -4.0636392     4.539058    1.9521395   0.46704951 
   28800   0.98560904   -4.0616137    4.5441971    1.9609788   0.47408621 
   28900   0.98734155   -4.0600152     4.539541      1.96052   0.46582166 
   29000   0.98555246   -4.0666643    4.5445292    1.9561755   0.45516738 
   29100   0.98465196   -4.0610178    4.5447211    1.9606632   0.47466634 
   29200     0.986114   -4.0585147    4.5439804    1.9646186   0.48377338 
   29300   0.98960556   -4.0645892    4.5399747    1.9597756   0.46773677 
   29400   0.98921166   -4.0637671    4.5406886    1.9607208   0.45525265 
   29500   0.98564364   -4.0519872    4.5427658    1.9692258   0.47778396 
   29600   0.98990022   -4.0620563    4.5423907    1.9651664    0.4610948 
   29700    0.9895298   -4.0624025     4.540407    1.9622809   0.45251599 
   29800   0.98916852   -4.0533675    4.5416265    1.9719936   0.46916443 
   29900   0.98797571   -4.0568375    4.5424893    1.9675972    0.4729077 
   30000   0.98883511   -4.0610742    4.5422557    1.9644159    0.4620723 
   30100   0.98941538   -4.0539736    4.5425308     1.972662   0.46848362 
   30200   0.98843754   -4.0562127    4.5427575    1.9691829   0.46465616 
   30300   0.98641038   -4.0583054    4.5432116    1.9645036   0.46973527 
   30400   0.99364602    -4.056368    4.5437289    1.9778117    0.4679149 
   30500   0.98637409    -4.055144    4.5447533    1.9691523   0.45848225 
   30600   0.98936065   -4.0607362    4.5473809    1.9706675   0.46251501 
   30700    0.9949761   -4.0597477    4.5437767    1.9764747   0.46544968 
   30800    0.9880081   -4.0531646    4.5449171    1.9737464   0.45015149 
   30900    0.9934038   -4.0579309     4.545764    1.9779205   0.44189275 
   31000   0.99143346   -4.0583991    4.5434923    1.9722252   0.45933798 
   31100   0.99023372   -4.0512356    4.5454803     1.979577   0.48693499 
   31200   0.99237426   -4.0572179    4.5422082    1.9735333   0.47327423 
   31300   0.98979755   -4.0558204    4.5441427    1.9730004   0.47020734 
   31400    0.9894163   -4.0515399    4.5433475    1.9759138   0.46054555 
   31500   0.98906698   -4.0510449    4.5450932    1.9776306    0.4764817 
   31600   0.99427848   -4.0585158    4.5440951    1.9769788   0.46927322 
   31700   0.98956202   -4.0544813    4.5469098    1.9767532   0.48527804 
   31800   0.99502538   -4.0565351    4.5456085    1.9815931   0.47490928 
   31900   0.99302846   -4.0601359    4.5449926    1.9743811   0.47281441 
   32000   0.99125397   -4.0555626    4.5477023    1.9790024   0.48466429 
   32100   0.99036916   -4.0495216    4.5432713    1.9792851   0.48787904 
   32200   0.99321105   -4.0583911    4.5439122    1.9753195   0.47429305 
   32300   0.99447191   -4.0575635    4.5448323    1.9789584   0.46689055 
   32400   0.99112207    -4.053428    4.5431165    1.9763533   0.48178681 
   32500     0.998114    -4.056918    4.5430085    1.9832431   0.46895795 
   32600   0.99155856   -4.0588217     4.545872    1.9743698   0.45770052 
   32700   0.99428409   -4.0543094    4.5448711    1.9819695   0.47431808 
   32800   0.99291908   -4.0558989    4.5456631    1.9791245   0.46732966 
   32900   0.99407674   -4.0568381    4.5435091    1.9777678   0.47267759 
   33000   0.99308739   -4.0512781    4.5442295    1.9825642   0.47360884 
   33100   0.98676578   -4.0482026     4.546484    1.9784119   0.47346399 
   33200   0.99506869   -4.0511483     4.543033    1.9844694   0.46395369 
   33300   0.99118374   -4.0542834    4.5454238    1.9778978   0.45307949 
   33400   0.99294287   -4.0484938    4.5452739    1.9861761   0.47524273 
   33500   0.99495405    -4.051033    4.5463807    1.9877604   0.45101793 
   33600   0.98899336   -4.0506997    4.5445523    1.9773244   0.45443055 
   33700   0.99515724   -4.0422672    4.5444784    1.9949286   0.47871281 
   33800   0.99265344   -4.0460344    4.5444617    1.9873892   0.47832243 
   33900   0.99555121   -4.0517294    4.5432234    1.9848025   0.46184099 
   34000   0.99707839   -4.0506108    4.5436142    1.9886026   0.46870577 
   34100   0.99232378   -4.0440721     4.543743    1.9881384    0.4684887 
   34200    1.0017624   -4.0526738    4.5423317    1.9922829   0.45862576 
   34300   0.99401997    -4.051236     4.544555    1.9843306   0.46269238 
   34400    1.0006677    -4.047162    4.5435218    1.9973429   0.46398083 
   34500   0.99712615   -4.0489268    4.5453188    1.9920628   0.46067374 
   34600   0.99146997   -4.0483641    4.5468975      1.98572   0.45770149 
   34700   0.99900803   -4.0438561    4.5447984    1.9994359    0.4761017 
   34800   0.99376729   -4.0475702    4.5454827    1.9885452    0.4649561 
   34900   0.99556569   -4.0503121    4.5452711    1.9882892   0.45238195 
   35000   0.99277296   -4.0457781    4.5477032    1.9910663   0.46010382 
   35100   0.99674082   -4.0447277    4.5460843    1.9964494   0.45377807 
   35200   0.99380485   -4.0483127    4.5445879    1.9869642   0.47085148 
   35300   0.99569369   -4.0481559    4.5448617     1.990228   0.46379166 
   35400   0.99622678   -4.0399835    4.5425431    1.9968814   0.46368716 
   35500   0.99554545   -4.0479279    4.5427024    1.9880744    0.4538669 
   35600   0.99473648    -4.043474    4.5431457    1.9917581   0.46618372 
   35700   0.99060535   -4.0410569    4.5453659    1.9901987   0.46366936 
   35800   0.99522583   -4.0436252    4.5420045    1.9911997    0.4603715 
   35900     0.992581   -4.0467439    4.5466447    1.9887541   0.45825458 
   36000    0.9974371   -4.0456338     4.544847    1.9953505   0.46135781 
   36100   0.99682053    -4.046737    4.5452306     1.993706   0.45289178 
   36200   0.99363085    -4.043769    4.5452519    1.9919109   0.46571012 
   36300   0.99336052   -4.0402903     4.545893    1.9956252   0.47947691 
   36400   0.99654893   -4.0423274    4.5435007    1.9959783   0.46317962 
   36500   0.99564286   -4.0463482    4.5443128    1.9914105   0.45968976 
   36600   0.99346532   -4.0395874    4.5412365    1.9918288   0.46249007 
   36700   0.99450422    -4.039484    4.5456157    1.9978698   0.47635047 
   36800   0.99329459   -4.0435666    4.5442101    1.9905671   0.46606763 
   36900   0.99489028   -4.0410225     4.544452    1.9957466   0.47006145 
   37000   0.99443048   -4.0409469     4.546445    1.9971254   0.45867276 
   37100   0.99514116    -4.044199    4.5427042    1.9911986   0.44777016 
   37200   0.99598131   -4.0436907    4.5450862    1.9953492   0.46930365 
   37300   0.99620804   -4.0430579    4.5448449    1.9960807   0.46172652 
   37400   0.99469048   -4.0433766    4.5423885    1.9910293   0.45827795 
   37500    0.9929737   -4.0431749    4.5476222    1.9938895   0.47495209 
   37600   0.99306027   -4.0357613    4.5437317    1.9975425   0.46650937 
   37700   0.99300968   -4.0408142    4.5436373    1.9923193   0.46118548 
   37800   0.99838399   -4.0445315     4.544636    1.9976621   0.46467047 
   37900   0.99145106   -4.0396145     4.547244    1.9947878   0.45932942 
   38000   0.99804461   -4.0450583    4.5446556    1.9966458   0.46028535 
   38100   0.99506078    -4.042916     4.544752    1.9944088   0.46427314 
   38200   0.99680898    -4.041364    4.5419223    1.9957533   0.46378125 
   38300   0.99781905   -4.0412219    4.5438364    1.9993247   0.46589501 
   38400   0.99565188   -4.0462467    4.5446793     1.991892   0.44914695 
   38500   0.99569822   -4.0398539    4.5457193    1.9993944   0.45719517 
   38600    0.9988119   -4.0417117     4.543287    1.9997747   0.45538789 
   38700   0.99460268   -4.0410928    4.5473879    1.9981808   0.45949447 
   38800     0.995186   -4.0393775    4.5437414    1.9971246   0.45367949 
   38900    0.9944884   -4.0358064    4.5448316    2.0007395   0.45650247 
   39000   0.99214832   -4.0396442    4.5462652    1.9948252   0.45217126 
   39100   0.99545704   -4.0399046    4.5460403    1.9993029   0.44896125 
   39200   0.99078431   -4.0388063    4.5472373    1.9945891   0.45055144 
   39300   0.99280695   -4.0390737    4.5457038    1.9958222    0.4449232 
   39400   0.99494496   -4.0404559    4.5462896    1.9982328   0.45379687 
   39500   0.99131077   -4.0392304     4.545683    1.9934005   0.44934883 
   39600   0.99620266   -4.0386398    4.5469739    2.0026197   0.46550594 
   39700   0.99470474   -4.0369642    4.5434614    1.9985361   0.45968514 
   39800   0.99491607   -4.0379059    4.5442286    1.9986784   0.44817383 
   39900   0.99431362   -4.0376681    4.5472844    2.0010684   0.44657828 
   40000   0.99393022   -4.0341912    4.5453477    2.0020335   0.45148936 
   40100    0.9923797   -4.0363977    4.5465569    1.9987105   0.45103586 
   40200     0.994649    -4.037446     4.545162    1.9996711    0.4512599 
   40300   0.99421215   -4.0375892    4.5498222    2.0035329   0.44879403 
   40400   0.99438034   -4.0405126    4.5481971    1.9992367   0.44228504 
   40500   0.99760327   -4.0391598    4.5441422    2.0013689   0.44158394 
Loop time of 1004.74 on 32 procs for 40000 steps with 81390 atoms

Performance: 6879.392 tau/day, 39.811 timesteps/s
94.4% CPU use with 4 MPI tasks x 8 OpenMP threads

MPI task timing breakdown:
Section |  min time  |  avg time  |  max time  |%varavg| %total
---------------------------------------------------------------
Pair    | 84.804     | 306.33     | 625.13     |1319.7 | 30.49
Bond    | 0.0090277  | 7.3454     | 18.035     | 284.5 |  0.73
Neigh   | 121.2      | 124.4      | 126.8      |  18.1 | 12.38
Comm    | 104.93     | 350.13     | 620.36     | 997.8 | 34.85
Output  | 38.216     | 38.246     | 38.271     |   0.3 |  3.81
Modify  | 92.617     | 170.97     | 353.31     | 809.9 | 17.02
Other   |            | 7.317      |            |       |  0.73

Nlocal:    20347.5 ave 38051 max 8089 min
Histogram: 2 0 0 0 0 0 1 0 0 1
Nghost:    5547.5 ave 9500 max 2491 min
Histogram: 2 0 0 0 0 0 0 1 0 1
Neighs:    670160 ave 1.32364e+06 max 218261 min
Histogram: 2 0 0 0 0 0 1 0 0 1

Total # of neighbors = 2680638
Ave neighs/atom = 32.9357
Ave special neighs/atom = 1.05013
Neighbor list builds = 2494
Dangerous builds = 0

unfix 			1
unfix 			2
unfix 			30
unfix 			300
undump 			1
###########################################################
############### Post parameters############################
reset_timestep  	0
velocity 		all create $T 293849 mom yes rot yes dist gaussian
velocity 		all create 1 293849 mom yes rot yes dist gaussian
fix 			1 all nvt temp $T $T 0.3
fix 			1 all nvt temp 1 $T 0.3
fix 			1 all nvt temp 1 1 0.3
fix_modify 		1 temp myTemp
fix 			30 all wall/reflect zhi EDGE
fix 			300 all wall/reflect zlo EDGE

#compute 		bins ham chunk/atom bin/3d x 60.0 1.149 y 0.0 1.143 z 2.8 1.1391 bound #			x 60.0 160.0 bound y 0.0 34.4 bound z 2.8 29.0
#fix  			d ham ave/chunk 2 5 10 bins density/number norm sample #			file small_bond_bins_dens.dat

compute 		bins1 ham chunk/atom bin/3d x 60.0 1 y 0.0 1.1467 z 2.8 1.1392 bound 			x 60.0 90.0 bound y 0.0 34.4 bound z 2.8 29.0
fix  			d1 ham ave/chunk 2 5 10 bins1 density/number norm sample 			file left_small_bond_bins_dens.dat

compute 		bins2 ham chunk/atom bin/3d x 120.0 1 y 0.0 1.1467 z 2.8 1.1392 bound 			x 120.0 150.0 bound y 0.0 34.4 bound z 2.8 29.0
fix  			d2 ham ave/chunk 2 5 10 bins2 density/number norm sample 			file right_small_bond_bins_dens.dat

thermo_style    	custom step temp pe etotal
thermo_modify	        temp myTemp
thermo			100
#fix            		extra ham print 1000 "$(step) $(temp) $(pe)" append iteration_info.dat #			screen no

#restart     		100000 water.restart.mpiio
dump			1 all custom 200 ssmall_cutoff_bond_sandwich.dat id type x y z
run			100000
Per MPI rank memory allocation (min/avg/max) = 24.94 | 31.45 | 39.74 Mbytes
Step Temp PotEng TotEng 
       0            1   0.50498235    2.0049639 
     100    0.9939335   0.51484843    2.0057304 
     200   0.99905385   0.51252416    2.0110865 
     300    1.0001137   0.51183301    2.0119851 
     400    1.0020737   0.51327594     2.016368 
     500    1.0021627   0.51532079    2.0185463 
     600    1.0009434   0.50503263    2.0064292 
     700    1.0001401   0.51276566    2.0129574 
     800     0.993927   0.51524428    2.0061165 
     900   0.99972238   0.50964315    2.0092083 
    1000   0.99950867   0.51403389    2.0132785 
    1100    1.0024186   0.52043851    2.0240479 
    1200     1.004405   0.51638424    2.0229733 
    1300   0.99749778      0.51487    2.0110983 
    1400    1.0026976   0.51584189    2.0198698 
    1500   0.99874647   0.51448134    2.0125826 
    1600   0.99590174   0.51390701    2.0077413 
    1700   0.99855162   0.51511734    2.0129264 
    1800    1.0010435   0.51988284    2.0214296 
    1900    1.0034944   0.51409186    2.0193149 
    2000    1.0037392   0.51864974    2.0242401 
    2100    1.0013704   0.51916823    2.0212054 
    2200    1.0002526   0.51136028    2.0117208 
    2300   0.99831944   0.51524205    2.0127028 
    2400   0.99552206    0.5196398    2.0129045 
    2500   0.99891357   0.51556486    2.0139168 
    2600    1.0017008   0.51411574    2.0166484 
    2700    1.0001028   0.52092364    2.0210595 
    2800    1.0009917   0.51947274    2.0209418 
    2900    1.0016908   0.51491295    2.0174306 
    3000   0.99983537   0.52068835     2.020423 
    3100    1.0000876   0.52132374    2.0214367 
    3200   0.99961729   0.51610683    2.0155143 
    3300    1.0013528   0.52198135     2.023992 
    3400    1.0000184   0.52609241    2.0261015 
    3500    1.0022829   0.51964025    2.0230462 
    3600    1.0065704     0.519073      2.02891 
    3700   0.99665462   0.52285079    2.0178144 
    3800   0.99658942    0.5239395    2.0188053 
    3900   0.99765611   0.51756198    2.0140278 
    4000   0.99601862   0.52178812    2.0157977 
    4100    1.0023973   0.52054474    2.0241223 
    4200   0.99969999   0.51817255    2.0177041 
    4300    1.0013414   0.52116726    2.0231609 
    4400     1.001373   0.52532186    2.0273629 
    4500    1.0019758   0.52243488    2.0253802 
    4600    1.0011732   0.52508826    2.0268297 
    4700    1.0006426   0.52929239    2.0302378 
    4800    1.0001491   0.52024769    2.0204529 
    4900    0.9984999   0.52166444    2.0193959 
    5000   0.99565828   0.52498786    2.0184569 
    5100   0.99686359   0.52659545    2.0218725 
    5200    1.0026227   0.52422924    2.0281449 
    5300   0.99638508   0.53188388    2.0264431 
    5400    1.0018144   0.53247413    2.0351773 
    5500   0.99756419   0.53230257    2.0286305 
    5600   0.99991642   0.52652302    2.0263792 
    5700    1.0028875   0.52674293    2.0310556 
    5800   0.99578295   0.52590555    2.0195616 
    5900   0.99704882   0.52335018     2.018905 
    6000   0.99276156   0.52707881    2.0162029 
    6100   0.99519512   0.52735157    2.0201259 
    6200    1.0004182   0.52691343    2.0275223 
    6300   0.99912764   0.53142652    2.0300996 
    6400     1.000752   0.53461609    2.0357257 
    6500    1.0033866   0.52956952     2.034631 
    6600    1.0012986   0.52796836    2.0298978 
    6700   0.99830104   0.53031744    2.0277506 
    6800   0.99993276   0.52787517    2.0277559 
    6900    0.9938175   0.52872879    2.0194367 
    7000   0.99948392   0.53224148    2.0314489 
    7100    1.0037887   0.53070815    2.0363727 
    7200    1.0003401   0.53320995    2.0337017 
    7300    1.0065984   0.53084696     2.040726 
    7400    1.0024809   0.52632881    2.0300317 
    7500   0.99825435   0.53007926    2.0274424 
    7600   0.99992183   0.52802282    2.0278871 
    7700   0.99526839   0.53511795    2.0280022 
    7800    1.0008112   0.53030715    2.0315055 
    7900    1.0030931   0.53171243    2.0363336 
    8000    1.0025793    0.5360918    2.0399422 
    8100     1.001149   0.53605674    2.0377618 
    8200    1.0006501   0.53451577    2.0354725 
    8300   0.99911866   0.53654614    2.0352057 
    8400   0.99768469   0.53523455    2.0317432 
    8500   0.99916949   0.53160753    2.0303434 
    8600   0.99701989   0.53194253     2.027454 
    8700   0.99878273   0.53576608    2.0339218 
    8800    1.0024419   0.53200114    2.0356455 
    8900    1.0018862   0.53611414     2.038925 
    9000    1.0011268   0.54200942    2.0436812 
    9100   0.99971965    0.5378567    2.0374178 
    9200    1.0004601   0.53157844    2.0322502 
    9300    0.9974771   0.53628493    2.0324822 
    9400   0.99814806   0.53184715    2.0290508 
    9500    1.0004059   0.52847671    2.0290672 
    9600    1.0030181   0.53449633     2.039005 
    9700    1.0060236   0.53432664    2.0433435 
    9800    1.0030877    0.5328189     2.037432 
    9900    1.0034138   0.53037623    2.0354784 
   10000    1.0004759   0.53032257    2.0310179 
   10100    1.0004597   0.52514515    2.0258163 
   10200    1.0001166   0.52891589    2.0290723 
   10300   0.99824196   0.53130593    2.0286505 
   10400    1.0006661   0.53101419    2.0319949 
   10500    1.0040758   0.53134513    2.0374403 
   10600    1.0033495   0.53513142    2.0401371 
   10700    1.0025367   0.53495741     2.038744 
   10800    1.0011527   0.53134341     2.033054 
   10900   0.99928479   0.53395825     2.032867 
   11000   0.99952176   0.53452782     2.033792 
   11100    1.0003448   0.53144525     2.031944 
   11200    1.0005134    0.5320435    2.0327951 
   11300   0.99922131   0.53776651    2.0365801 
   11400   0.99700172   0.53473058    2.0302148 
   11500    1.0024246   0.53352382    2.0371423 
   11600    1.0036785   0.53715432    2.0426535 
   11700    1.0031011   0.53385695    2.0384902 
   11800    1.0000003   0.53677979    2.0367619 
   11900   0.99692883   0.53726285    2.0326377 
   12000   0.99667705   0.53507105    2.0300683 
   12100     1.000023   0.52882982    2.0288459 
   12200   0.99654291   0.53460001     2.029396 
   12300    1.0017055   0.53170686    2.0342466 
   12400    1.0007739    0.5321028    2.0332452 
   12500   0.99893417   0.53204427    2.0304271 
   12600    1.0012723   0.53294558    2.0348357 
   12700   0.99982268   0.53356508    2.0332807 
   12800   0.99682332   0.53145246    2.0266691 
   12900    1.0035149   0.52779683    2.0330506 
   13000   0.99918399   0.52974623    2.0285038 
   13100    0.9967113   0.52778639     2.022835 
   13200   0.99951874   0.52855261    2.0278123 
   13300    0.9993967   0.52847678    2.0275534 
   13400   0.99801799   0.53151372    2.0285223 
   13500    1.0023595   0.53309419    2.0366149 
   13600    1.0032333   0.53205268    2.0368842 
   13700    1.0006035   0.53468368    2.0355705 
   13800   0.99998093   0.52921632    2.0291693 
   13900   0.99718868   0.53017102    2.0259357 
   14000    1.0027657   0.52504184    2.0291719 
   14100   0.99415639   0.53172288    2.0229391 
   14200     1.001713   0.52923948    2.0317906 
   14300    1.0040295   0.52699889    2.0330247 
   14400   0.99902812   0.53158703    2.0301108 
   14500    1.0000878   0.53128182    2.0313951 
   14600   0.99622947   0.53288156    2.0272074 
   14700     0.997774   0.52752733    2.0241699 
   14800   0.99674367   0.52864635    2.0237435 
   14900   0.99912645   0.52903075     2.027702 
   15000    1.0042772    0.5307443    2.0371416 
   15100    1.0004038   0.53235806    2.0329453 
   15200    1.0020708   0.53452209    2.0376099 
   15300     1.001404   0.53354405    2.0356316 
   15400   0.99740301   0.53196099    2.0280471 
   15500    1.0015088   0.53044398    2.0326886 
   15600   0.99606327   0.53011898    2.0241955 
   15700   0.99649045   0.52295022    2.0176675 
   15800   0.99622258   0.52752554     2.021841 
   15900   0.99582066   0.53034367    2.0240563 
   16000   0.99926745   0.52937384    2.0282566 
   16100    1.0004046   0.53080374    2.0313921 
   16200   0.99966942   0.52929976    2.0287855 
   16300    1.0000465   0.53029356    2.0303449 
   16400   0.99951988    0.5301214    2.0293828 
   16500   0.99890886   0.52812375    2.0264686 
   16600   0.99988498   0.52489914    2.0247082 
   16700   0.99649444    0.5255032    2.0202265 
   16800   0.99866947   0.52343901    2.0214248 
   16900    1.0010866   0.52710751     2.028719 
   17000   0.99986239   0.52905466    2.0288298 
   17100    1.0035028   0.52903898    2.0342747 
   17200    1.0002692   0.52923127    2.0296166 
   17300   0.99892903   0.52930192    2.0276771 
   17400   0.99732596   0.53132643     2.027297 
   17500   0.99672774   0.53066463    2.0257379 
   17600    1.0047776   0.52855798    2.0357059 
   17700    1.0049384   0.52903305    2.0364221 
   17800    1.0035749   0.53371474    2.0390586 
   17900     1.003278   0.53089299    2.0357915 
   18000    1.0001481   0.52680327    2.0270069 
   18100    1.0006683   0.52753673    2.0285207 
   18200    1.0001416   0.52694329    2.0271372 
   18300   0.99907446   0.52675621    2.0253495 
   18400   0.99938918   0.52770381    2.0267692 
   18500    1.0014333   0.52751921    2.0296507 
   18600    1.0052668   0.52845211    2.0363337 
   18700    1.0037462   0.53079822     2.036399 
   18800    1.0044358     0.531271    2.0379061 
   18900   0.99930825   0.53237014    2.0313141 
   19000    1.0009718   0.52651154    2.0279508 
   19100    1.0020775    0.5277751    2.0308729 
   19200   0.99871103   0.52840366    2.0264518 
   19300   0.99957061   0.52596258    2.0253001 
   19400   0.99779727   0.53021457    2.0268921 
   19500   0.99796963   0.53160488    2.0285409 
   19600    1.0003086   0.53223396    2.0326785 
   19700    1.0031988   0.53065326    2.0354329 
   19800    1.0013497   0.53554526    2.0375513 
   19900    1.0002182   0.52857435    2.0288833 
   20000    1.0016637   0.52479487     2.027272 
   20100    0.9978787   0.53348204    2.0302817 
   20200   0.99677572   0.53051768    2.0256629 
   20300    1.0015459   0.52929514    2.0315956 
   20400   0.99743628   0.53538338    2.0315194 
   20500    1.0015464   0.53333723    2.0356383 
   20600    1.0018914   0.52776997    2.0305887 
   20700    1.0041413   0.52998648    2.0361799 
   20800    1.0025614   0.53477949    2.0386032 
   20900   0.99933781   0.53208938    2.0310777 
   21000    1.0005532   0.53241691    2.0332283 
   21100   0.99720464   0.53324376    2.0290323 
   21200   0.99954101   0.52866815    2.0279612 
   21300   0.99991896   0.52933168    2.0291917 
   21400    1.0009768   0.53333942    2.0347862 
   21500    1.0043715   0.53585055    2.0423893 
   21600    1.0011536   0.53542101     2.037133 
   21700    1.0006678   0.53694983    2.0379332 
   21800    1.0016973   0.53320468    2.0357321 
   21900   0.99520787   0.53565121    2.0284447 
   22000    1.0004668   0.52921593    2.0298977 
   22100   0.99981366   0.53653247    2.0362345 
   22200    1.0012685   0.52821918    2.0301035 
   22300   0.99962827   0.53035208    2.0297761 
   22400   0.99871962   0.53361635    2.0316774 
   22500   0.99444555   0.53031004      2.02196 
   22600   0.99846963   0.52481741    2.0225035 
   22700    0.9950319   0.53303946     2.025569 
   22800    1.0027514   0.53195388    2.0360625 
   22900    1.0014295   0.53070227    2.0328281 
   23000   0.99820034   0.53610738    2.0333895 
   23100    1.0049008   0.53284166    2.0401744 
   23200   0.99731749   0.52982573    2.0257836 
   23300   0.99852262    0.5274115     2.025177 
   23400   0.99865924   0.52916551     2.027136 
   23500   0.99660599   0.52587827    2.0207689 
   23600    0.9981852   0.52834226    2.0256017 
   23700   0.99967199   0.53312286    2.0326124 
   23800   0.99663173   0.53516893    2.0300982 
   23900   0.99924952   0.52827869    2.0271345 
   24000   0.99930818   0.53534866    2.0342925 
   24100   0.99832107   0.53339368    2.0308569 
   24200   0.99781339   0.53123791    2.0279396 
   24300    1.0024837   0.52887627    2.0325834 
   24400   0.99674839   0.53373392    2.0288381 
   24500    1.0016321   0.52416539    2.0265951 
   24600   0.99880763   0.52872503    2.0269181 
   24700    1.0026843   0.53409538    2.0381034 
   24800    1.0004243   0.53204023    2.0326582 
   24900    1.0029874   0.53265599    2.0371186 
   25000    1.0032469   0.53729282    2.0421447 
   25100   0.99896924    0.5313412    2.0297766 
   25200    1.0002935   0.52642448    2.0268464 
   25300   0.99690682   0.53115706    2.0264989 
   25400   0.99949699   0.53175532    2.0309824 
   25500    1.0003018   0.53015938    2.0305936 
   25600   0.99944313   0.53475064    2.0338969 
   25700    1.0058703   0.53496864    2.0437555 
   25800    0.9998406   0.53077998    2.0305225 
   25900    1.0031015   0.53010644    2.0347402 
   26000    1.0019866   0.53379568    2.0367571 
   26100    1.0006224   0.52761314    2.0285282 
   26200    1.0034039   0.52618914    2.0312765 
   26300   0.99491665   0.53358983    2.0259465 
   26400   0.99792245   0.53022131    2.0270866 
   26500   0.99626363   0.52462816    2.0190052 
   26600   0.99721285   0.53214683    2.0279477 
   26700   0.99978839   0.53545864    2.0351228 
   26800    1.0035785   0.52749105    2.0328403 
   26900    1.0028253   0.53039064    2.0346102 
   27000   0.99994361   0.53599755    2.0358945 
   27100   0.99853159   0.53088702     2.028666 
   27200   0.99492155   0.52815291    2.0205169 
   27300   0.99922947   0.52956837    2.0283942 
   27400   0.99530114   0.52829308    2.0212264 
   27500      1.00291   0.52661878    2.0309653 
   27600    1.0057185   0.53230566    2.0408649 
   27700     1.001366   0.52980646     2.031837 
   27800    1.0009681   0.53091219    2.0323459 
   27900   0.99606115   0.53338538    2.0274587 
   28000   0.99906073   0.53015458    2.0287273 
   28100    1.0001995   0.52569266    2.0259735 
   28200    1.0018373   0.52642102    2.0291584 
   28300    1.0052529   0.53289555    2.0407563 
   28400    1.0018157   0.53170916    2.0344142 
   28500    1.0014783   0.53389715    2.0360961 
   28600    1.0000311   0.53511252    2.0351408 
   28700    1.0006902    0.5270918    2.0281087 
   28800    1.0006656   0.52686435    2.0278443 
   28900    1.0002711   0.53351795    2.0339062 
   29000   0.99748624   0.53452651    2.0307375 
   29100    1.0043873   0.52770392    2.0342663 
   29200    1.0025781   0.53348711    2.0373357 
   29300    1.0022473     0.534861    2.0382135 
   29400    1.0073772   0.53424804    2.0452952 
   29500    1.0041565   0.53505658    2.0412728 
   29600    1.0056489    0.5349163    2.0433711 
   29700    1.0009681   0.53307249    2.0345062 
   29800   0.99960422   0.52648428    2.0258722 
   29900      1.00249   0.53542582    2.0391424 
   30000   0.99806485   0.53177585    2.0288547 
   30100    1.0020041   0.53006608    2.0330538 
   30200    1.0030256   0.53910277    2.0436227 
   30300    1.0032614   0.53625557    2.0411292 
   30400    1.0068563   0.53455182    2.0448178 
   30500   0.99963543   0.53835967    2.0377944 
   30600   0.99883393   0.53780047    2.0360329 
   30700    1.0012167   0.52750639    2.0293129 
   30800   0.99849158   0.53331266    2.0310316 
   30900   0.99747024   0.53938582    2.0355728 
   31000    1.0003606   0.53247453    2.0329971 
   31100   0.99837865   0.53813369    2.0356833 
   31200    1.0034714   0.54081206    2.0460006 
   31300    1.0025126   0.53713389    2.0408844 
   31400   0.99729308   0.53862701    2.0345482 
   31500    1.0008847   0.53507077    2.0363793 
   31600   0.99545025   0.53364681    2.0268038 
   31700    0.9992028   0.52997227     2.028758 
   31800     0.998406   0.53816801    2.0357586 
   31900   0.99954499   0.53670552    2.0360046 
   32000    1.0044931   0.53333202    2.0400532 
   32100    1.0025722   0.53796588    2.0418057 
   32200      1.00479   0.53763648    2.0448029 
   32300   0.99668372   0.53632051    2.0313277 
   32400   0.99307274   0.53804835    2.0276392 
   32500   0.99756129   0.54101128    2.0373348 
   32600    1.0009105   0.53507432    2.0364216 
   32700    1.0009338    0.5359418     2.037324 
   32800    1.0027632   0.54173294    2.0458593 
   32900   0.99980041   0.54201372    2.0416959 
   33000    1.0009404   0.53500214    2.0363943 
   33100   0.99747182   0.53716291    2.0333523 
   33200    0.9959283   0.53629471    2.0301688 
   33300   0.99944309   0.52886116    2.0280074 
   33400    1.0010405   0.52926717    2.0308094 
   33500    1.0034556   0.53543116     2.040596 
   33600    1.0030057   0.53134302     2.035833 
   33700    1.0001814   0.53488462    2.0351382 
   33800    1.0016319   0.53745664     2.039886 
   33900   0.99607747    0.5322127    2.0263105 
   34000   0.99489586   0.53015384    2.0224793 
   34100   0.99808984   0.53287054    2.0299869 
   34200   0.99730601   0.53297699    2.0289176 
   34300    1.0026788   0.53065055    2.0346502 
   34400    1.0009234   0.53512833    2.0364949 
   34500   0.99924254   0.53810121    2.0369466 
   34600     1.003716   0.53186983    2.0374253 
   34700    1.0005971   0.53358144    2.0344587 
   34800     1.002897   0.53532655    2.0396536 
   34900   0.99756258   0.53520235    2.0315278 
   35000   0.99725786   0.53367349    2.0295419 
   35100   0.99895708   0.53425487    2.0326721 
   35200    1.0011673   0.52682797    2.0285605 
   35300   0.99999278   0.53104407    2.0310148 
   35400    1.0022912   0.53754953    2.0409678 
   35500     1.003959    0.5333571    2.0392772 
   35600    1.0038721   0.53298135     2.038771 
   35700    1.0029438   0.53393363    2.0383309 
   35800    0.9975782   0.52952828    2.0258772 
   35900   0.99878923   0.53126987    2.0294353 
   36000   0.99931228   0.53078533    2.0297353 
   36100   0.99877096   0.53253924    2.0306773 
   36200    1.0013492   0.53519898    2.0372044 
   36300   0.99860124   0.53527155     2.033155 
   36400    1.0027373    0.5344489    2.0385364 
   36500   0.99933645   0.53011278     2.029099 
   36600    0.9932845   0.53166242    2.0215709 
   36700   0.99833364   0.53251969    2.0300018 
   36800   0.99662355   0.52737259    2.0222895 
   36900    1.0005618   0.52930752    2.0301317 
   37000     1.002708   0.53225701    2.0363005 
   37100    1.0013834    0.5284181    2.0304748 
   37200     1.002717   0.53221515    2.0362721 
   37300   0.99914317   0.53381564     2.032512 
   37400   0.99690756   0.52967356    2.0250165 
   37500    1.0004333   0.52760168    2.0282333 
   37600   0.99526632   0.53298419    2.0258653 
   37700    1.0014185   0.53065724    2.0327666 
   37800    1.0061648    0.5266273     2.035856 
   37900   0.99944894   0.53621286    2.0353679 
   38000    1.0033429   0.53591844    2.0409143 
   38100    1.0003476   0.53238566    2.0328887 
   38200   0.99762657   0.53467479    2.0310963 
   38300   0.99551804   0.53298276    2.0262415 
   38400   0.99409576   0.52769604    2.0188214 
   38500   0.99705691   0.52805369    2.0236207 
   38600   0.99690213   0.53588098    2.0312158 
   38700   0.99950447   0.53298121    2.0322195 
   38800    1.0002901    0.5342934    2.0347101 
   38900    1.0022474   0.53638978    2.0397424 
   39000   0.99997386   0.53836814    2.0383105 
   39100    1.0009181   0.53648705    2.0378457 
   39200   0.99987171   0.53547931    2.0352684 
   39300   0.99924085   0.53475694    2.0335998 
   39400   0.99588993   0.53382176    2.0276383 
   39500   0.99455859   0.53489913    2.0267187 
   39600    1.0039231   0.53617424    2.0420404 
   39700    1.0008492   0.53341671    2.0346721 
   39800    1.0011513   0.53553983    2.0372484 
   39900    1.0013554   0.53857233    2.0405869 
   40000    0.9982488   0.53532177    2.0326766 
   40100    1.0055688   0.52900829     2.037343 
   40200   0.99703648   0.53344876    2.0289851 
   40300   0.99596935   0.53110995    2.0250456 
   40400   0.99533052   0.53084635    2.0238238 
   40500   0.99604193   0.53349947     2.027544 
   40600   0.99946103   0.53135552    2.0305286 
   40700   0.99950824   0.53553443    2.0347784 
   40800   0.99727874     0.537396    2.0332957 
   40900   0.99972744   0.54014968    2.0397224 
   41000    1.0050365   0.53554846    2.0430847 
   41100   0.99708087   0.53924149    2.0348444 
   41200   0.99873449   0.54113889    2.0392222 
   41300   0.99500667   0.53367642    2.0261681 
   41400   0.99573798   0.53345509    2.0270437 
   41500   0.99641581    0.5408671    2.0354725 
   41600   0.99771355   0.53540946    2.0319614 
   41700    1.0044916   0.53372668    2.0404456 
   41800    1.0002317    0.5343504    2.0346795 
   41900   0.99888025   0.53603804      2.03434 
   42000   0.99892396   0.53776797    2.0361355 
   42100   0.99547176   0.53345406    2.0266434 
   42200    1.0011473   0.53691444     2.038617 
   42300   0.99968043   0.53934835    2.0388506 
   42400    1.0028621   0.53789519    2.0421699 
   42500    1.0043041   0.54073273    2.0471704 
   42600    1.0008422   0.53451465    2.0357595 
   42700   0.99984268   0.53644299    2.0361886 
   42800   0.99966469   0.53486899    2.0343476 
   42900   0.99630527   0.53678447     2.031224 
   43000   0.99871536     0.539253    2.0373076 
   43100   0.99979153   0.53933987    2.0390087 
   43200    1.0025444   0.53555618    2.0393543 
   43300    1.0009284   0.53811453    2.0394887 
   43400    1.0007919   0.53596618    2.0371356 
   43500   0.99779693   0.54109968    2.0377767 
   43600     1.001251   0.53711529    2.0389733 
   43700   0.99576134   0.54006637      2.03369 
   43800    1.0000921   0.54092509    2.0410448 
   43900    0.9978352   0.53672084    2.0334553 
   44000    0.9996557   0.53335518    2.0328203 
   44100    1.0029516   0.53289709     2.037306 
   44200   0.99609782   0.53402741    2.0281558 
   44300   0.99957289   0.53551504     2.034856 
   44400   0.99690819    0.5381827    2.0335266 
   44500    1.0021456   0.53627941    2.0394794 
   44600    1.0027121   0.53889466    2.0429443 
   44700    1.0035594   0.53656976    2.0418903 
   44800    1.0002481   0.53677524    2.0371289 
   44900   0.99890608   0.53521946    2.0335602 
   45000    0.9956939   0.53498734    2.0285098 
   45100   0.99680572   0.53533864    2.0305289 
   45200    1.0026563   0.53326135    2.0372274 
   45300   0.99567702   0.53944752    2.0329447 
   45400    1.0039602   0.53421951    2.0401413 
   45500    1.0023826   0.53704545    2.0406009 
   45600   0.99777172   0.53359194    2.0302311 
   45700   0.99788293   0.53237156    2.0291776 
   45800    0.9982352   0.53028836    2.0276228 
   45900   0.99521978   0.53385225    2.0266636 
   46000   0.99804494     0.535645     2.032694 
   46100    1.0016041   0.53435426    2.0367419 
   46200    1.0027438   0.53334479     2.037442 
   46300     1.001774   0.53413511    2.0367777 
   46400    1.0015451   0.53838168    2.0406808 
   46500    1.0005103   0.53713214    2.0378792 
   46600   0.99819421   0.53497916    2.0322521 
   46700   0.99538347   0.53657218     2.029629 
   46800   0.99797472   0.53529022    2.0322339 
   46900   0.99998776   0.53314573    2.0331089 
   47000    1.0000159   0.54044694    2.0404523 
   47100    1.0013762   0.54012144    2.0421673 
   47200    1.0021062   0.53614898    2.0392899 
   47300    1.0001812   0.53810369    2.0383571 
   47400   0.99789407   0.53769676    2.0345195 
   47500    1.0003787   0.53526327    2.0358129 
   47600   0.99858741   0.53099557    2.0288583 
   47700   0.99321725   0.53385855    2.0236661 
   47800   0.99586252    0.5334862    2.0272616 
   47900   0.99496259   0.52999574    2.0224213 
   48000   0.99734703   0.53699207    2.0329942 
   48100    1.0007839   0.53945652     2.040614 
   48200    1.0003016   0.53470982    2.0351438 
   48300    1.0048721   0.53598595    2.0432756 
   48400   0.99932991   0.54378972    2.0427662 
   48500    1.0012247   0.53633564    2.0381543 
   48600   0.99922943   0.53441861    2.0332443 
   48700   0.99942402   0.53260203    2.0317196 
   48800   0.99777902   0.53361609    2.0302662 
   48900    1.0007352   0.52822798    2.0293123 
   49000   0.99983556    0.5361339    2.0358688 
   49100   0.99813959   0.53837987    2.0355709 
   49200   0.99819603   0.53874353    2.0360192 
   49300   0.99749579   0.54086953    2.0370948 
   49400    1.0006862   0.53938925    2.0404002 
   49500    1.0021423    0.5351739    2.0383689 
   49600    1.0006938   0.53637684    2.0373991 
   49700    1.0024793   0.53651921    2.0402197 
   49800   0.99726744   0.53406335    2.0299461 
   49900    0.9970622   0.53571041    2.0312853 
   50000   0.99741622   0.53543259    2.0315385 
   50100   0.99740858   0.53655517    2.0326497 
   50200    1.0026423   0.53401196     2.037957 
   50300    1.0039844   0.53592107    2.0418791 
   50400    1.0026646   0.54116675    2.0451451 
   50500     1.000623   0.53399868    2.0349147 
   50600    0.9998565   0.53691338    2.0366797 
   50700    0.9979256   0.53798893    2.0348589 
   50800    0.9984964   0.53494946    2.0326757 
   50900   0.99982695    0.5357013    2.0354233 
   51000    1.0016223   0.53804144    2.0404565 
   51100   0.99975752    0.5374275    2.0370454 
   51200    1.0007942   0.53790867    2.0390816 
   51300    1.0017542    0.5373354    2.0399482 
   51400     0.993589   0.53727978     2.027645 
   51500   0.99925756   0.53166274    2.0305307 
   51600   0.99701925   0.53245025    2.0279607 
   51700    1.0005007   0.53423295    2.0349656 
   51800     1.000354     0.534688    2.0352006 
   51900    1.0017243   0.53695614    2.0395241 
   52000    1.0082517   0.53973751    2.0520964 
   52100    1.0078471   0.53786808    2.0496201 
   52200    1.0051644   0.54057677    2.0483048 
   52300    1.0031787    0.5390824     2.043832 
   52400   0.99986547   0.53686423     2.036644 
   52500    1.0012928   0.53154946    2.0334702 
   52600   0.99947295   0.53629084    2.0354818 
   52700   0.99756115   0.53111421    2.0274376 
   52800    1.0016611   0.52836575     2.030839 
   52900    0.9952348   0.53989763    2.0327315 
   53000    1.0007001   0.53790529    2.0389371 
   53100    1.0046635   0.53359658    2.0405734 
   53200    1.0010134   0.53675708    2.0382587 
   53300    1.0039719   0.53854493    2.0444842 
   53400    0.9970041   0.53613733    2.0316251 
   53500   0.99670803   0.53464669    2.0296904 
   53600   0.99562115   0.53587971    2.0292931 
   53700   0.99778724   0.52998186    2.0266443 
   53800   0.99836282   0.53288374    2.0304096 
   53900   0.99581085   0.54143478    2.0351327 
   54000   0.99976233   0.53609542    2.0357205 
   54100     1.001913   0.53591747    2.0387686 
   54200    1.0004384   0.54193887    2.0425781 
   54300   0.99916874   0.53928614    2.0380208 
   54400    1.0029334   0.53338582    2.0377675 
   54500   0.99733613   0.53727295    2.0332588 
   54600   0.99889284    0.5314753    2.0297962 
   54700   0.99762403   0.53106147    2.0274791 
   54800   0.99675997   0.53403913    2.0291607 
   54900     1.000934   0.53704412    2.0384266 
   55000    1.0034866   0.53394299    2.0391545 
   55100   0.99966135   0.53920354    2.0386771 
   55200    1.0030241   0.53634979    2.0408675 
   55300   0.99862588    0.5369577    2.0348781 
   55400   0.99797377    0.5336956    2.0306379 
   55500     1.000316   0.53474546     2.035201 
   55600    0.9974579   0.53506051     2.031229 
   55700   0.99878165   0.53788156    2.0360356 
   55800    1.0056233   0.53540336    2.0438198 
   55900    1.0011415   0.53907386    2.0407676 
   56000    1.0044039   0.53457855    2.0411659 
   56100    1.0004226   0.53411736    2.0347328 
   56200   0.99951456   0.53455502    2.0338084 
   56300    0.9979145   0.53544558    2.0322989 
   56400   0.99643715     0.536827    2.0314644 
   56500    1.0012055   0.53794203    2.0397318 
   56600   0.99995855   0.53548254    2.0354019 
   56700    1.0007407   0.53669158    2.0377842 
   56800    1.0013793   0.53839467    2.0404452 
   56900    1.0010091   0.53476971     2.036265 
   57000    1.0016245    0.5354615    2.0378798 
   57100   0.99721758   0.53935033    2.0351583 
   57200    1.0010472   0.53598492    2.0375372 
   57300   0.99937328   0.53494152     2.033983 
   57400   0.99783817   0.53396722    2.0307061 
   57500   0.99442509   0.53502858    2.0266479 
   57600   0.99538213   0.53139882    2.0244537 
   57700   0.99878803   0.53231668    2.0304803 
   57800   0.99706012   0.53993901    2.0355108 
   57900    1.0003817    0.5377624    2.0383165 
   58000    1.0016501   0.53094549    2.0334022 
   58100     1.000102   0.53778278    2.0379173 
   58200   0.99555246   0.53884965      2.03216 
   58300   0.99488825   0.53210394     2.024418 
   58400   0.99514372   0.53363511    2.0263323 
   58500   0.99495217   0.53540107     2.027811 
   58600   0.99841671   0.53455275    2.0321594 
   58700    1.0036291   0.53145544    2.0368806 
   58800    1.0022321   0.53750705    2.0408367 
   58900   0.99938056   0.53476008    2.0338125 
   59000   0.99888844   0.53478267    2.0330969 
   59100   0.99884508   0.53553753    2.0337867 
   59200   0.99721613   0.53550022     2.031306 
   59300   0.99824732   0.53465516    2.0320077 
   59400    1.0032484   0.53652793     2.041382 
   59500    1.0044393   0.53679685    2.0434372 
   59600   0.99932668   0.53872024    2.0376918 
   59700    1.0020008   0.53744612    2.0404288 
   59800   0.99725364   0.53564908    2.0315112 
   59900   0.99717768   0.53549883     2.031247 
   60000   0.99682877   0.53583578    2.0310606 
   60100    1.0028388    0.5326409    2.0368806 
   60200    0.9991583   0.53295938    2.0316784 
   60300   0.99898311   0.53453434    2.0329906 
   60400    1.0030551    0.5390198    2.0435839 
   60500   0.99569583   0.53885735    2.0323827 
   60600    1.0068473   0.53479003    2.0450425 
   60700    1.0051858   0.53735047    2.0451106 
   60800    1.0014911   0.53609295    2.0383111 
   60900    1.0000279   0.53794473    2.0379681 
   61000   0.99873734   0.53578581    2.0338734 
   61100   0.99632952   0.53468304     2.029159 
   61200   0.99755678   0.53440905    2.0307258 
   61300    1.0008379   0.53421198    2.0354505 
   61400    1.0017614    0.5344234     2.037047 
   61500    1.0074251   0.53227409    2.0433932 
   61600    1.0021163   0.53594898    2.0391049 
   61700    1.0031119   0.53623461     2.040884 
   61800     1.001326   0.53460029    2.0365709 
   61900   0.99739667   0.53734778    2.0334244 
   62000    1.0023189   0.53523915     2.038699 
   62100   0.99958162   0.53223913    2.0315931 
   62200    1.0003581   0.53442634     2.034945 
   62300   0.99748981    0.5368469    2.0330632 
   62400   0.99900477   0.53401395    2.0325027 
   62500   0.99838981   0.53438364    2.0319499 
   62600   0.99831939   0.53826432     2.035725 
   62700    1.0021609   0.53688666    2.0401096 
   62800    1.0017883   0.53629503     2.038959 
   62900     1.002684   0.53655097    2.0405585 
   63000   0.99957076   0.53762039    2.0369581 
   63100   0.99505524   0.53487175    2.0274363 
   63200   0.99615424   0.53437728    2.0285903 
   63300   0.99948326    0.5365624    2.0357689 
   63400   0.99444685   0.53962323    2.0312752 
   63500    1.0034536   0.53462389    2.0397858 
   63600    1.0017965   0.53813262    2.0408089 
   63700    1.0036184   0.53472344    2.0401325 
   63800   0.99979135   0.53625883    2.0359274 
   63900   0.99701414   0.53537911    2.0308819 
   64000   0.99683712   0.53284152    2.0280788 
   64100   0.99540948   0.53509076    2.0281866 
   64200   0.99840962   0.53398214    2.0315782 
   64300    1.0006506   0.53632501    2.0372825 
   64400    1.0018943   0.53677978    2.0396028 
   64500    1.0007412   0.53471088    2.0358042 
   64600    1.0037568   0.53697404    2.0425908 
   64700   0.99943719   0.53612947    2.0352668 
   64800    1.0006004   0.53307798    2.0339601 
   64900   0.99984622    0.5295643    2.0293152 
   65000   0.99260253   0.53117503    2.0200605 
   65100   0.99559356   0.53311589    2.0264879 
   65200   0.99953935   0.53268185    2.0319725 
   65300    1.0024976   0.53312607     2.036854 
   65400    1.0023336   0.53185653    2.0353384 
   65500   0.99953238   0.53734971    2.0366299 
   65600     1.002044   0.53323399    2.0362815 
   65700   0.99740275   0.53392365    2.0300094 
   65800   0.99713297   0.53455262    2.0302337 
   65900   0.99885389   0.53290957     2.031172 
   66000    1.0002674   0.53174043    2.0321231 
   66100    1.0006541   0.53419456    2.0351573 
   66200    1.0039759   0.53756021    2.0435056 
   66300    1.0014141   0.53602834     2.038131 
   66400     1.002282   0.53223705    2.0356416 
   66500   0.99631596    0.5359075    2.0303631 
   66600   0.99776322   0.53403136    2.0306578 
   66700   0.99910732    0.5296403    2.0282829 
   66800   0.99785165   0.53341353    2.0301726 
   66900    1.0010477   0.53595222    2.0375053 
   67000    1.0003374   0.53349946    2.0339872 
   67100    1.0045233   0.53297717    2.0397436 
   67200   0.99649833   0.54057266    2.0353018 
   67300    1.0013962   0.53165005    2.0337259 
   67400   0.99632242   0.52971236    2.0241776 
   67500   0.99248824   0.53443057    2.0231446 
   67600   0.99789549   0.53335377    2.0301786 
   67700   0.99703988   0.53222973    2.0277712 
   67800     1.000356    0.5343531    2.0348686 
   67900   0.99810028    0.5394737    2.0366057 
   68000    1.0016617   0.53381361    2.0362877 
   68100    1.0022799   0.53494311    2.0383445 
   68200     0.999046   0.53800857    2.0365592 
   68300   0.99998708   0.53834155    2.0383037 
   68400   0.99730828   0.53528291    2.0312269 
   68500   0.99923236   0.53747609    2.0363062 
   68600    0.9991145   0.53509727    2.0337506 
   68700    1.0005423   0.53258116    2.0333762 
   68800    1.0037992   0.53766518    2.0433455 
   68900    1.0030104   0.53598161    2.0404787 
   69000     1.003237   0.53511433    2.0399513 
   69100   0.99536509   0.53931347    2.0323428 
   69200   0.99319818   0.54069814    2.0304771 
   69300   0.99914314    0.5333556    2.0320519 
   69400    0.9998973   0.53440896    2.0342365 
   69500   0.99837124    0.5399547    2.0374932 
   69600    1.0011487   0.53765615    2.0393607 
   69700    1.0011013   0.53741096    2.0390444 
   69800   0.99790124   0.54044359    2.0372771 
   69900    1.0022828   0.53530156    2.0387072 
   70000   0.99625015    0.5336741     2.028031 
   70100   0.99337017   0.53443751    2.0244745 
   70200    1.0003271    0.5355376    2.0360098 
   70300   0.99374811   0.53997924    2.0305831 
   70400    1.0015404   0.53737219    2.0396644 
   70500    1.0014712   0.54051177    2.0427001 
   70600    0.9984626   0.53852073    2.0361962 
   70700    1.0006318   0.54049526    2.0414246 
   70800   0.99834263   0.54053095    2.0380265 
   70900   0.99932755   0.53690771    2.0358806 
   71000   0.99695606   0.53786477    2.0332805 
   71100   0.99718924   0.53793051     2.033696 
   71200   0.99445499   0.54238392    2.0340481 
   71300   0.99724957   0.54038542    2.0362414 
   71400     1.003386   0.54029297    2.0453535 
   71500    1.0036212   0.53811726    2.0435305 
   71600    0.9962088   0.54308615     2.037381 
   71700    1.0003219   0.54034797    2.0408124 
   71800   0.99668345   0.54066694    2.0356737 
   71900    1.0016313   0.53539276    2.0378212 
   72000   0.99913838   0.53734295    2.0360321 
   72100    0.9974657    0.5419799    2.0381601 
   72200   0.99706835   0.54227676    2.0378609 
   72300    1.0018868     0.537253    2.0400647 
   72400    1.0015598   0.54140978     2.043731 
   72500    1.0032323   0.54277804     2.047608 
   72600     1.005429   0.54275917    2.0508841 
   72700     1.004086   0.54110827    2.0472188 
   72800   0.99969122   0.54471493    2.0442333 
   72900   0.99943703   0.53862918    2.0377663 
   73000    0.9986995   0.53818663    2.0362175 
   73100    1.0001322   0.54151493    2.0416948 
   73200    1.0008423   0.53712318    2.0383682 
   73300    1.0026295   0.54305093    2.0469767 
   73400    1.0048245   0.53926043    2.0464786 
   73500    1.0017976   0.54273971    2.0454177 
   73600   0.99926262   0.53735925    2.0362348 
   73700    0.9965709   0.53760448    2.0324425 
   73800    1.0001205   0.54020488    2.0403672 
   73900   0.99996562   0.53624766    2.0361777 
   74000    1.0007009    0.5420934    2.0431263 
   74100     1.000726   0.54329152     2.044362 
   74200     1.003297   0.54236014    2.0472871 
   74300   0.99630238    0.5402452    2.0346804 
   74400   0.99908632   0.53752965    2.0361407 
   74500   0.99812008   0.53592007    2.0330818 
   74600   0.99757511   0.53509991    2.0314442 
   74700    1.0023944   0.53938996    2.0429631 
   74800   0.99989713   0.54055087    2.0403781 
   74900    1.0040176    0.5383583    2.0443662 
   75000     1.001087   0.53789508    2.0395071 
   75100    1.0000225   0.54359762     2.043613 
   75200   0.99989778   0.53889194    2.0387202 
   75300   0.99856853   0.53639617    2.0342306 
   75400    0.9978018   0.53822385    2.0349082 
   75500   0.99387747   0.53528255    2.0260804 
   75600   0.99559344   0.53402056    2.0273924 
   75700   0.99541177   0.54258533    2.0356846 
   75800   0.99775796    0.5410924     2.037711 
   75900     1.003214    0.5335476    2.0383501 
   76000   0.99938828   0.54169738    2.0407614 
   76100    1.0003669   0.54236425    2.0428961 
   76200    1.0001964   0.53479183    2.0350679 
   76300    1.0017027   0.53303411    2.0355696 
   76400   0.99836535   0.53550333     2.033033 
   76500   0.99774486   0.53366869    2.0302676 
   76600   0.99745121   0.53317889    2.0293373 
   76700   0.99755064   0.54428839     2.040596 
   76800    1.0062966   0.53455979    2.0439862 
   76900    0.9975471   0.54102309    2.0373254 
   77000    1.0026429   0.54046849    2.0444143 
   77100   0.99756207   0.54347235    2.0397971 
   77200    1.0018067   0.53526979    2.0379613 
   77300   0.99902788   0.53513529    2.0336587 
   77400   0.99710004   0.53735999    2.0329917 
   77500    0.9987113   0.53252065    2.0305692 
   77600   0.99387775   0.53810855    2.0289069 
   77700    1.0008637   0.54189896    2.0431761 
   77800    1.0025069    0.5379144    2.0416563 
   77900   0.99955112     0.536253    2.0355613 
   78000     1.001057   0.54113978    2.0427069 
   78100   0.99918395   0.53836409    2.0371216 
   78200   0.99573758   0.53840044    2.0319885 
   78300   0.99596983   0.53833741    2.0322738 
   78400   0.99422622   0.54407053    2.0353915 
   78500    0.9982256   0.53366702     2.030987 
   78600     1.003255   0.53571727    2.0405813 
   78700    1.0042235   0.53899749    2.0453142 
   78800    1.0002451   0.53867545    2.0390246 
   78900    1.0003074   0.53342594    2.0338686 
   79000   0.99860823   0.53878018    2.0366741 
   79100   0.99935698   0.53324746    2.0322645 
   79200   0.99737077   0.53382373    2.0298615 
   79300   0.99998311    0.5388836    2.0388398 
   79400   0.99820465     0.538408    2.0356966 
   79500    1.0026544   0.53409301    2.0380562 
   79600    1.0016661   0.53492134     2.037402 
   79700    1.0056841   0.53863081    2.0471384 
   79800    1.0012608   0.54102027    2.0428929 
   79900    1.0037333   0.53569466    2.0412761 
   80000    1.0013502   0.53842857    2.0404354 
   80100   0.99604389   0.53679106    2.0308385 
   80200   0.99890925   0.53311962    2.0314651 
   80300   0.99711273   0.53839141    2.0340421 
   80400    1.0023993   0.53323441    2.0368149 
   80500    1.0019447   0.53545777    2.0383564 
   80600    1.0022045   0.53691772    2.0402059 
   80700    1.0061261   0.53716704    2.0463376 
   80800    1.0033388   0.53606116    2.0410509 
   80900    1.0016254   0.53259143    2.0350111 
   81000   0.99793555    0.5365412    2.0334261 
   81100   0.99875005   0.53374186    2.0318485 
   81200   0.99483812   0.53300815     2.025247 
   81300    1.0003551   0.53509218    2.0356063 
   81400    1.0022536   0.53298833    2.0363503 
   81500    1.0026222   0.53218259    2.0360975 
   81600    1.0060557   0.53795207    2.0470171 
   81700   0.99846137   0.53546306    2.0331367 
   81800    1.0019793   0.52784474    2.0307952 
   81900    0.9958231   0.53302163    2.0267379 
   82000   0.99792902   0.53660217    2.0334773 
   82100    1.0018076   0.53100783    2.0337008 
   82200    1.0019165   0.53011465    2.0329709 
   82300    1.0003215   0.54239649    2.0428603 
   82400   0.99878101   0.53461551    2.0327686 
   82500   0.99925386    0.5312571    2.0301195 
   82600   0.99932467   0.53278895    2.0317575 
   82700   0.99184386   0.53538487    2.0231324 
   82800     0.999636    0.5266876    2.0261232 
   82900    1.0003562   0.53675613     2.037272 
   83000    1.0009206    0.5358076    2.0371701 
   83100    1.0010799   0.53444002    2.0360414 
   83200    1.0008293   0.53266795    2.0338935 
   83300   0.99661368   0.53529795    2.0302001 
   83400    1.0012192   0.52854069    2.0303511 
   83500   0.99528443   0.53214411    2.0250524 
   83600   0.99922404   0.53721967    2.0360373 
   83700    1.0041714   0.53400571    2.0402442 
   83800    1.0018525   0.53435589    2.0371161 
   83900    1.0028401   0.53764731     2.041889 
   84000   0.99950358   0.53613464    2.0353716 
   84100   0.99779363   0.53171551    2.0283876 
   84200   0.99654407   0.53531133    2.0301091 
   84300   0.99747394   0.53809821    2.0342907 
   84400   0.99767836   0.53226492    2.0287641 
   84500    1.0040899   0.53753806    2.0436544 
   84600    1.0037203    0.5388083    2.0443702 
   84700    1.0045538   0.53292882     2.039741 
   84800   0.99947418   0.53646705    2.0356599 
   84900    1.0011829   0.53436474    2.0361206 
   85000   0.99837857   0.53729585    2.0348453 
   85100   0.99835186   0.53253967    2.0300491 
   85200    1.0017111   0.53804661    2.0405948 
   85300    1.0023093   0.53913403    2.0425796 
   85400    1.0063145   0.53440512    2.0438583 
   85500    1.0078917   0.53717589    2.0489949 
   85600    1.0024325   0.54101107    2.0446414 
   85700   0.99966264   0.53640654    2.0358821 
   85800   0.99994041   0.53736336    2.0372555 
   85900   0.99761851   0.54019562     2.036605 
   86000    1.0012438   0.53493463    2.0367818 
   86100   0.99809471   0.53502827    2.0321519 
   86200   0.99989817   0.53985627    2.0396851 
   86300    1.0062099   0.53412316    2.0434194 
   86400    1.0002299    0.5375453    2.0378718 
   86500    1.0057463   0.53852782    2.0471288 
   86600    1.0015469   0.53693814    2.0392401 
   86700   0.99713161   0.53470972    2.0303888 
   86800   0.99931933   0.53440553    2.0333661 
   86900   0.99740552   0.53970007      2.03579 
   87000   0.99868916   0.53676696    2.0347823 
   87100    1.0022037   0.53806594     2.041353 
   87200    1.0003685   0.54191852    2.0424528 
   87300   0.99996741   0.53508789    2.0350206 
   87400   0.99538649   0.53540575    2.0284671 
   87500   0.99232683   0.54101615    2.0294881 
   87600   0.99638811   0.53686323     2.031427 
   87700   0.99787442   0.53733919    2.0341324 
   87800   0.99940741   0.54229681    2.0413895 
   87900     1.000136   0.53957079    2.0397564 
   88000    1.0011152   0.54014118    2.0417956 
   88100    1.0026516   0.53962492    2.0435838 
   88200    1.0027672    0.5371177      2.04125 
   88300   0.99872206   0.53543408    2.0334988 
   88400   0.99477368   0.53439002    2.0265322 
   88500   0.99960457   0.53643757     2.035826 
   88600    1.0007107   0.53417717    2.0352247 
   88700    1.0028931   0.53198927    2.0363104 
   88800    1.0023839   0.53835271    2.0419101 
   88900    1.0001946    0.5376409    2.0379143 
   89000    0.9975885   0.53712395    2.0334883 
   89100   0.99592835   0.53559509    2.0294693 
   89200   0.99186838   0.54050064    2.0282849 
   89300   0.99502596   0.53203832    2.0245589 
   89400   0.99776426   0.53805552    2.0346835 
   89500    1.0002087   0.53968975    2.0399844 
   89600    1.0020966   0.53545582    2.0385822 
   89700    1.0015452   0.53830129    2.0406006 
   89800   0.99816556   0.54251588    2.0397458 
   89900   0.99945423   0.54067268    2.0398356 
   90000   0.99670165   0.53838506    2.0334192 
   90100   0.99727481   0.53416553    2.0300594 
   90200   0.99707073   0.53798746    2.0335752 
   90300   0.99661115   0.53839876    2.0332971 
   90400   0.99908505    0.5418612    2.0404704 
   90500    1.0011456   0.54345876    2.0451587 
   90600     1.002256   0.53845736    2.0418229 
   90700    1.0008799   0.53903617    2.0403376 
   90800    1.0010733   0.53648412    2.0380757 
   90900   0.99583891   0.53935324    2.0330932 
   91000   0.99957025   0.53148393    2.0308209 
   91100   0.99623422    0.5349781    2.0293111 
   91200   0.99845103   0.53979665    2.0374548 
   91300    1.0037913   0.53756534    2.0432338 
   91400   0.99951297    0.5398253    2.0390763 
   91500    1.0033723   0.53814729    2.0431873 
   91600    1.0012324   0.53389279    2.0357229 
   91700   0.99760081   0.53338228    2.0297651 
   91800   0.99871586   0.53504057     2.033096 
   91900   0.99735334   0.53773504    2.0337467 
   92000     1.001531   0.53468924    2.0369673 
   92100    1.0007539   0.53754579    2.0386582 
   92200    1.0020683   0.53754826    2.0406323 
   92300    1.0024663   0.53651503     2.040196 
   92400   0.99846382   0.53646075    2.0341381 
   92500    1.0003306    0.5363467    2.0368242 
   92600    1.0025085   0.53291014    2.0366544 
   92700    1.0014673    0.5313636     2.033546 
   92800   0.99967664   0.53459964    2.0340962 
   92900    1.0000242   0.53606993    2.0360878 
   93000   0.99811747   0.53142596    2.0285838 
   93100    0.9966191   0.53535919    2.0302695 
   93200    1.0013571   0.53383398    2.0358511 
   93300    1.0000536    0.5341045    2.0341664 
   93400    1.0041902   0.53458881    2.0408556 
   93500    1.0045047   0.53578122    2.0425198 
   93600     1.003091   0.53435551    2.0389735 
   93700   0.99745344   0.53155737    2.0277191 
   93800   0.99526432   0.53630513    2.0291833 
   93900   0.99959882    0.5344779    2.0338577 
   94000    1.0009905   0.52969913    2.0311665 
   94100   0.99805046   0.53920203    2.0362593 
   94200    1.0011995   0.54098646    2.0427673 
   94300    1.0003922   0.53550053    2.0360705 
   94400    1.0033412   0.53590039    2.0408937 
   94500    1.0032346   0.53598144    2.0408148 
   94600   0.99666395   0.53635138    2.0313289 
   94700    0.9976632   0.53163448    2.0281109 
   94800   0.99603726   0.53843694    2.0324745 
   94900    1.0019886   0.53146838    2.0344327 
   95000    1.0020731   0.53111688     2.034208 
   95100    1.0047133   0.53551153     2.042563 
   95200    1.0015021    0.5402761    2.0425108 
   95300    1.0007751   0.53439308    2.0355373 
   95400   0.99828437   0.53837647    2.0357846 
   95500   0.99999476   0.53895523    2.0389289 
   95600    1.0000889   0.53193464    2.0320495 
   95700    1.0010847    0.5333193    2.0349279 
   95800   0.99894637   0.53998702    2.0383882 
   95900     1.000534   0.53548344     2.036266 
   96000   0.99967098   0.53889905    2.0383871 
   96100     1.004079   0.53604306     2.042143 
   96200    1.0003178   0.53709926    2.0375575 
   96300   0.99684413   0.53517748    2.0304253 
   96400   0.99674823   0.53565481    2.0307588 
   96500   0.99836555   0.53557679    2.0331067 
   96600   0.99713517   0.53724947    2.0329339 
   96700    1.0017054   0.53854591    2.0410856 
   96800    1.0031287   0.53913254    2.0438071 
   96900    1.0022563   0.53988401      2.04325 
   97000    0.9989828   0.54137442    2.0398302 
   97100    1.0015486   0.53870547      2.04101 
   97200   0.99937473   0.53865278    2.0376965 
   97300   0.99803466   0.54044082    2.0374744 
   97400    0.9944522   0.54251066    2.0341706 
   97500   0.99559805   0.54034867    2.0337274 
   97600    1.0003326   0.53815011    2.0386306 
   97700    1.0015459   0.53691256    2.0392129 
   97800    1.0029845   0.54063314    2.0450914 
   97900   0.99737817   0.54263179    2.0386807 
   98000    1.0003183   0.53984043    2.0402995 
   98100   0.99550477   0.53818465    2.0314235 
   98200   0.99497532   0.53684266    2.0292873 
   98300   0.99912498   0.53567747    2.0343465 
   98400   0.99691202    0.5397399    2.0350895 
   98500    1.0015646   0.53849178    2.0408203 
   98600   0.99906927   0.54049046    2.0390759 
   98700    1.0036418   0.53484561    2.0402899 
   98800    1.0040686   0.53416809    2.0402525 
   98900    1.0000467   0.53696398    2.0370155 
   99000   0.99771098   0.53740804    2.0339561 
   99100   0.99561814   0.53804196    2.0314508 
   99200    1.0012915   0.53737706    2.0392958 
   99300    1.0022911   0.53832011    2.0417382 
   99400    1.0021336   0.54142695    2.0446088 
   99500    1.0031597   0.54045885    2.0451799 
   99600   0.99926484   0.54221873    2.0410976 
   99700     1.000981   0.53492266    2.0363758 
   99800   0.99760872   0.53813445    2.0345291 
   99900   0.99810345   0.53967479    2.0368116 
  100000     1.000672    0.5339916    2.0349812 
Loop time of 3924.85 on 32 procs for 100000 steps with 81390 atoms

Performance: 4402.716 tau/day, 25.479 timesteps/s
88.2% CPU use with 4 MPI tasks x 8 OpenMP threads

MPI task timing breakdown:
Section |  min time  |  avg time  |  max time  |%varavg| %total
---------------------------------------------------------------
Pair    | 214.66     | 757.04     | 1535.7     |2054.9 | 19.29
Bond    | 0.025745   | 18.597     | 45.646     | 452.5 |  0.47
Neigh   | 304.91     | 312.97     | 319.09     |  28.9 |  7.97
Comm    | 594.11     | 1099       | 1814.5     |1341.7 | 28.00
Output  | 47.637     | 101.05     | 118.91     | 306.8 |  2.57
Modify  | 1041.2     | 1415.1     | 2364.3     |1461.3 | 36.05
Other   |            | 221.1      |            |       |  5.63

Nlocal:    20347.5 ave 38211 max 8089 min
Histogram: 2 0 0 0 0 0 1 0 0 1
Nghost:    5536 ave 9524 max 2491 min
Histogram: 2 0 0 0 0 0 0 1 0 1
Neighs:    665622 ave 1.31924e+06 max 218447 min
Histogram: 2 0 0 0 0 0 1 0 0 1

Total # of neighbors = 2662487
Ave neighs/atom = 32.7127
Ave special neighs/atom = 1.05013
Neighbor list builds = 6393
Dangerous builds = 0


Total wall time: 1:22:24
                                                                                                                                                                                                                                                                                                                                                                                                                                                                                                                                                                                                                                                                                                                                                                                                                                                                                                                                                                                                                                                                                                                                                                                                                                                                                                                                                                                                                                                                                                                                                                                                                                                                                                                                                                                                                                                                                                                                                                                                                                                                                                                                                                                                                                                                                                                                                                                                                                                                                                                                                                                                                                                                                                                                                                                                                                                                                                                                                                                                                                                                                                                                                                                                                                                                                                                                                                                                                                                                                                                                                                                                                                                                                                                                                                                                                                                                                                                                                                                                                                                                                                                                                                                                                                                                                                                                                                                                                                                                                                                                                                                                                                                                                                                                                                                                                                                                                                                                                                                                                                                                                                                                                                                                                                                                                                                                                                                                                                                                                                                                                                                                                                                                                                                                                                                                                                                                                                                                                                                                                                                                                                                                                                                                                                                                                                                                                                                                                                                                                                                                                                                                                                                                                                                                                                                                                                                                                                                                                                                                                                                                                                                                                                                                                                                                                                                                                                                                                                                                                                                                                                                                                                                                                                                                                                                                                                                                                                                                                                                                                                                                                                                                                                                                                                                                                                                                                                                                                                                                                                                                                                                                                                                                                                                                                                                                                                                                                                                                                                                                                                                                                                                                                                                                                                                                                                                                                                                                                                                                                                                                                                                                                                                                                                                                                                                                                                                                                                                                                                                                                                                                                                                                                                                                                                                                                                                                                                                                                                                                                                                                                                                                                                                                                                                                                                                                                                                                                                                                                                                                                                                                                                                                                                                                                                                                                                                                                                                                                                                                                                                                                                                                                                                                                                                                                                                                                                                                                                                                                                                                                                                                                                                                                                                                                                                                                                                                                                                                                                                                                                                                                                                                                                                                                                                                                                                                                                                                                                                                                                                                                                                                                                                                                                                                                                                                                                                                                                                                                                                                                                                                                                                                                                                                                                                                                                                                                                                                                                                                                                                                                                                                                                                                                                                                                                                                                                                                                                                                                                                                                                                                                                                                                                                                                                                                                                                                                                                                                                                                                                                                                                                                                                                                                                                                                                                                                                                                                                                                                                                                                                                                                                                                                                                                                                                                                                                                                                                                                                                                                                                                                                                                                                                                                                                                                                                                                                                                                                                                                                                                                                                                                                                                                                                                                                                                                                                                                                                                                                                                                                                                                                                                                                                                                                                                                                                                                                                                                                                                                                                                                                                                                                                                                                                                                                                                                                                                                                                                                                                                                                                                                                                                                                                                                                                                                                                                                                                                                                                                                                                                                                                                                                                                                                                                                                                                                                                                                                                                                                                                                                                                                                                                                                                                                                                                                                                                                                                                                                                                                                                                                                                                                                                                                                                                                                                                                                                                                                                                                                                                                                                                                                                                                                                                                                                                                                                                                                                                                                                                                                                                                                                                                                                                                                                                                                                                                                                                                                                                                                                                                                                                                                                                                                                                                                                                                                                                                                                                                                                                                                                                                                                                                                                                                                                                                                                                                                                                                                                                                                                                                                                                                                                                                                                                                                                                                                                                                                                                                                                                                                                                                                                                                                                                                                                                                                                                                                                                                                                                                                                                                                                                                                                                                                                                                                                                                                                                                                                                                                                                                                                                                                                                                                                                                                                                                                                                                                                                                                                                                                                                                                                                                                                                                                                                                                                                                                                                                                                                                                                                                                                                                                                                                                                                                                                                                                                                                                                                                                                                                                                                                                                                                                                                                                                                                                                                                                                                                                                                                                                                                                                                                                                                                                                                                                                                                                                                                                                                                                                                                                                                                                                                                                                                                                                                                                                                                                                                                                                                                                                                                                                                                                                                                                                                                                                                                                                                                                                                                                                                                                                                                                                                                                                                                                                                                                                                                                                                                                                                                                                                                                                                                                                                                                                                                                                                                                                                                                                                                                                                                                                                                                                                                                                                                                                                                                                                                                                                                                                                                                                                                                                                                                                                                                                                                                                                                                                                                                                                                                                                                                                                                                                                                                                                                                                                                                                                                                                                                                                                                                                                                                                                                                                                                                                                                                                                                                                                                                                                                                                                                                                                                                                                                                                                                                                                                                                                                                                                                                                                                                                                                                                                                                                                                                                                                                                                                                                                                                                                                                                                                                                                                                                                                                                                                                                                                                                                                                                                                                                                                                                                                                                                                                                                                                                                                                                                                                                                                                                                                                                                                                                                                                                                                                                                                                                                                                                                                                                                                                                                                                                                                                                                                                                                                                                                                                                                                                                                                                                                                                                                                                                                                                                                                                                                                                                                                                                                                                                                                                                                                                                                                                                                                                                                                                                                                                                                                                                                                                                                                                                                                                                                                                                                                                                                                                                                                                                                                                                                                                                                                                                                                                                                                                                                                                                                                                                                                                                                                                                                                                                                                                                                                                                                                                                                                                                                                                                                                                                                                                                                                                                                                                                                                                                                                                                                                                                                                                                                                                                                                                                                                                                                                                                                                                                                                                                                                                                                                                                                                                                                                                                                                                                                                                                                                                                                                                                                                                                                                                                                                                                                                                                                                                                                                                                                                                                                                                                                                                                                                                                                                                                                                                                                                                                                                                                                                                                                                                                                                                                                                                                                                                                                                                                                                                                                                                                                                                                                                                                                                                                                                                                                                                                                                                                                                                                                                                                                                                                                                                                                                                                                                                                                                                                                                                                                                                                                                                                                                                                                                                                                                                                                                                                                                                                                                                                                                                                                                                                                                                                                                                                                                                                                                                                                                                                                                                                                                                                                                                                                                                                                                                                                                                                                                                                                                                                                                                                                                                                                                                                                                                                                                                                                                                                                                                                                                                                                                                                                                                                                                                                                                                                                                                                                                                                                                                                                                                                                                                                                                                                                                                                                                                                                                                                                                                                                                                                                                                                                                                                                                                                                                                                                                                                                                                                                                                                                                                                                                                                                                                                                                                                                                                                                                                                                                                                                                                                                                                                                                                                                                                                                                                                                                                                                                                                                                                                                                                                                                                                                                                                                                                                                                                                                                                                                                                                                                                                                                                                                                                                                                                                                                                                                                                                                                                                                                                                                                                                                                                                                                                                                                                                                                                                                                                                                                                                                                                                                                                                                                                                                                                                                                                                                                                                                                                                                                                                                                                                                                                                                                                                                                                                                                                                                                                                                                                                                                                                                                                                                                                                                                                                                                                                                                                                                                                                                                                                                                                                                                                                                                                                                                                                                                                                                                                                                                                                                                                                                                                                                                                                                                                                                                                                                                                                                                                                                                                                                                                                                                                                                                                                                                                                                                                                                                                                                                                                                                                                                                                                                                                                                                                                                                                                                                                                                                                                                                                                                                                                                                                                                                                                                                                                                                                                                                                                                                                                                                                                                                                                                                                                                                                                                                                                                                                                                                                                                                                                                                                                                                                                                                                                                                                                                                                                                                                                                                                                                                                                                                                                                                                                                                                                                                                                                                                                                                                                                                                                                                                                                                                                                                                                                                                                                                                                                                                                                                                                                                                                                                                                                                                                                                                                                                                                                                                                                                                                                                                                                                                                                                                                                                                                                                                                                                                                                                                                                                                                                                                                                                                                                                                                                                                                                                                                                                                                                                                                                                                                                                                                                                                                                                                                                                                                                                                                                                                                                                                                                                                                                                                                                                                                                                                                                                                                                                                                                                                                                                                                                                                                                                                                                                                                                                                                                                                                                                                                                                                                                                                                                                                                                                                                                                                                                                                                                                                                                                                                                                                                                                                                                                                                                                                                                                                                                                                                                                                                                                                                                                                                                                                                                                                                                                                                                                                                                                                                                                                                                                                                                                                                                                                                                                                                                                                                                                                                                                                                                                                                                                                                                                                                                                                                                                                                                                                                                                                                                                                                                                                                                                                                                                                                                                                                                                                                                                                                                                                                                                                                                                                                                                                                                                                                                                                                                                                                                                                                                                                                                                                                                                                                                                                                                                                                                                                                                                                                                                                                                                                                                                                                                                                                                                                                                                                                                                                                                                                                                                                                                                                                                                                                                                                                                                                                                                                                                                                                                                                                                                                                                                                                                                                                                                                                                                                                                                                                                                                                                                                                                                                                                                                                                                                                                                                                                                                                                                                                                                                                                                                                                                                                                                                                                                                                                                                                                                                                                                                                                                                                                                                                                                                                                                                                                                                                                                                                                                                                                                                                                                                                                                                                                                                                                                                                                                                                                                                                                                                                                                                                                                                                                                                                                                                                                                                                                                                                                                                                                                                                                                                                                                                                                                                                                                                                                                                                                                                                                                                                                                                                                                                                                                                                                                                                                                                                                                                                                                                                                                                                                                                                                                                                                                                                                                                                                                                                                                                                                                                                                                                                                                                                                                                                                                                                                                                                                                                                                                                                                                                                                                                                                                                                                                                                                                                                                                                                                                                                                                                                                                                                                                                                                                                                                                                                                                                                                                                                                                                                                                                                                                                                                                                                                                                                                                                                                                                                                                                                                                                                                                                                                                                                                                                                                                                                                                                                                                                                                                                                                                                                                                                                                                                                                                                                                                                                                                                                                                                                                                                                                                                                                                                                                                                                                                                                                                                                                                                                                                                                                                                                                                                                                                                                                                                                                                                                                                                                                                                                                                                                                                                                                                                                                                                                                                                                                                                                                                                                                                                                                                                                                                                                                                                                                                                                                                                                                                                                                                                                                                                                                                                                                                                                                                                                                                                                                                                                                                                                                                                                                                                                                                                                                                                                                                                                                                                                                                                                                                                                                                                                                                                                                                                                                                                                                                                                                                                                                                                                                                                                                                                                                                                                                                                                                                                                                                                                                                                                                                                                                                                                                                                                                                                                                                                                                                                                                                                                                                                                                                                                                                                                                                                                                                                                                                                                                                                                                                                                                                                                                                                                                                                                                                                                                                                                                                                                                                                                                                                                                                                                                                                                                                                                                                                                                                                                                                                                                                                                                                                                                                                                                                                                                                                                                                                                                                                                                                                                                                                                                                                                                                                                                                                                                                                                                                                                                                                                                                                                                                                                                                                                                                                                                                                                                                                                                                                                                                                                                                                                                                                                                                                                                                                                                                                                                                                                                                                                                                                                                                                                                                                                                                                                                                                                                                                                                                                                                                                                                                                                                                                                                                                                                                                                                                                                                                                                                                                                                                                                                                                                                                                                                                                                                                                                                                                                                                                                                                                                                                                                                                                                                                                                                                                                                                                                                                                                                                                                                                                                                                                                                                                                                                                                                                                                                                                                                                                                                                                                                                                                                                                                                                                                                                                                                                                                                                                                                                                                                                                                                                                                                                                                                                                                                                                                                                                                                                                                                                                                                                                                                                                                                                                                                                                                                                                                                                                                                                                                                                                                                                                                                                                                                                                                                                                                                                                                                                                                                                                                                                                                                                                                                                                                                                                                                                                                                                                                                                                                                                                                                                                                                                                                                                                                                                                                                                                                                                                                                                                                                                                                                                                                                                                                                                                                                                                                                                                                                                                                                                                                                                                                                                                                                                                                                                                                                                                                                                                                                                                                                                                                                                                                                                                                                                                                                                                                                                                                                                                                                                                                                                                                                                                                                                                                                                                                                                                                                                                                                                                                                                                                                                                                                                                                                                                                                                                                                                                                                                                                                                                                                                                                                                                                                                                                                                                                                                                                                                                                                                                                                                                                                                                                                                                                                                                                                                                                                                                                                                                                                                                                                                                                                                                                                                                                                                                                                                                                                                                                                                                                                                                                                                                                                                                                                                                                                                                                                                                                                                                                                                                                                                                                                                                                                                                                                                                                                                                                                                                                                                                                                                                                                                                                                                                                                                                                                                                                                                                                                                                                                                                                                                                                                                                                                                                                                                                                                                                                                                                                                                                                                                                                                                                                                                                                                                                                                                                                                                                                                                                                                                                                                                                                                                                                                                                                                                                                                                                                                                                                                                                                                                                                                                                                                                                                                                                                                                                                                                                                                                                                                                                                                                                                                                                                                                                                                                                                                                                                                                                                                                                                                                                                                                                                                                                                                                                                                                                                                                                                                                                                                                                                                                                                                                                                                                                                                                                                                                                                                                                                                                                                                                                                                                                                                                                                                                                                                                                                                                                                                                                                                                                                                                                                                                                                                                                                                                                                                                                                                                                                                                                                                                                                                                                                                                                                                                                                                                                                                                                                                                                                                                                                                                                                                                                                                                                                                                                                                                                                                                                                                                                                                                                                                                                                                                                                                                                                                                                                                                                                                                                                                                                                                                                                                                                                                                                                                                                                                                                                                                                                                                                                                                                                                                                                                                                                                                                                                                                                                                                                                                                                                                                                                                                                                                                                                                                                                                                                                                                                                                                                                                                                                                                                                                                                                                                                                                                                                                                                                                                                                                                                                                                                                                                                                                                                                                                                                                                                                                                                                                                                                                                                                                                                                                                                                                                                                                                                                                                                                                                                                                                                                                                                                                                                                                                                                                                                                                                                                                                                                                                                                                                                                                                                                                                                                                                                                                                                                                                                                                                                                                                                                                                                                                                                                                                                                                                                                                                                                                                                                                                                                                                                                                                                                                                                                                                                                                                                                                                                                                                                                                                                                                                                                                                                                                                                                                                                                                                                                                                                                                                                                                                                                                                                                                                                                                                                                                                                                                                                                                                                                                                                                                                                                                                                                                                                                                                                                                                                                                                                                                                                                                                                                                                                                                                                                                                                                                                                                                                                                                                                                                                                                                                                                                                                                                                                                                                                                                                                                                                                                                                                                                                                                                                                                                                                                                                                                                                                                                                                                                                                                                                                                                                                                                                                                                                                                                                                                                                                                                                                                                                                                                                                                                                                                                                                                                                                                                                                                                                                                                                                                                                                                                                                                                                                                                                                                                                                                                                                                                                                                                                                                                                                                                                                                                                                                                                                                                                                                                                                                                                                                                                                                                                                                                                                                                                                                                                                                                                                                                                                                                                                                                                                                                                                                                                                                                                                                                                                                                                                                                                                                                                                                                                                                                                                                                                                                                                                                                                                                                                                                                                                                                                                                                                                                                                                                                                                                                                                                                                                                                                                                                                                                                                                                                                                                                                                                                                                                                                                                                                                                                                                                                                                                                                                                                                                                                                                                                                                                                                                                                                                                                                                                                                                                                                                                                                                                                                                                                                                                                                                                                                                                                                                                                                                                                                                                                                                                                                                                                                                                                                                                                                                                                                                                                                                                                                                                                                                                                                                                                                                                                                                                                                                                                                                                                                                                                                                                                                                                                                                                                                                                                                                                                                                                                                                                                                                                                                                                                                                                                                                                                                                                                                                                                                                                                                                                                                                                                                                                                                                                                                                                                                                                                                                                                                                                                                                                                                                                                                                                                                                                                                                                                                                                                                                                                                                                                                                                                                                                                                                                                                                                                                                                                                                                                                                                                                                                                                                                                                                                                                                                                                                                                                                                                                                                                                                                                                                                                                                                                                                                                                                                                                                                                                                                                                                                                                                                                                                                                                                                                                                                                                                                                                                                                                                                                                                                                                                                                                                                                                                                                                                                                                                                                                                                                                                                                                                                                                                                                                                                                                                                                                                                                                                                                                                                                                                                                                                                                                                                                                                                                                                                                                                                                                                                                                                                                                                                                                                                                                                                                                                                                                                                                                                                                                                                                                                                                                                                                                                                                                                                                                                                                                                                                                                                                                                                                                                                                                                                                                                                                                                                                                                                                                                                                                                                                                                                                                                                                                                                                                                                                                                                                                                                                                                                                                                                                                                                                                                                                                                                                                                                                                                                                                                                                                                                                                                                                                                                                                                                                                                                                                                                                                                                                                                                                                                                                                                                                                                                                                                                                                                                                                                                                                                                                                                                                                                                                                                                                                                                                                                                                                                                                                                                                                                                                                                                                                                                                                                                                                                                                                                                                                                                                                                                                                                                                                                                                                                                                                                                                                                                                                                                                                                                                                                                                                                                                                                                                                                                                                                                                                                                                                                                                                                                                                                                                                                                                                                                                                                                                                                                                                                                                                                                                                                                                                                                                                                                                                                                                                                                                                                                                                                                                                                                                                                                                                                                                                                                                                                                                                                                                                                                                                                                                                                                                                                                                                                                                                                                                                                                                                                                                                                                                                                                                                                                                                                                                                                                                                                                                                                                                                                                                                                                                                                                                                                                                                                                                                                                                                                                                                                                                                                                                                                                                                                                                                                                                                                                                                                                                                                                                                                                                                                                                                                                                                                                                                                                                                                                                                                                                                                                                                                                                                                                                                                                                                                                                                                                                                                                                                                                                                                                                                                                                                                                                                                                                                                                                                                                                                                                                                                                                                                                                                                                                                                                                                                                                                                                                                                                                                                                                                                                                                                                                                                                                                                                                                                                                                                                                                                                                                                                                                                                                                                                                                                                                                                                                                                                                                                                                                                                                                                                                                                                                                                                                                                                                                                                                                                                                                                                                                                                                                                                                                                                                                                                                                                                                                                                                                                                                                                                                                                                                                                                                                                                                                                                                                                                                                                                                                                                                                                                                                                                                                                                                                                                                                                                                                                                                                                                                                                                                                                                                                                                                                                                                                                                                                                                                                                                                                                                                                                                                                                                                                                                                                                                                                                                                                                                                                                                                                                                                                                                                                                                                                                                                                                                                                                                                                                                                                                                                                                                                                                                                                                                                                                                                                                                                                                                                                                                                                                                                                                                                                                                                                                                                                                                                                                                                                                                                                                                                                                                                                                                                                                                                                                                                                                                                                                                                                                                                                                                                                                                                                                                                                                                                                                                                                                                                                                                                                                                                                                                                                                                                                                                                                                                                                                                                                                                                                                                                                                                                                                                                                                                                                                                                                                                                                                                                                                                                                                                                                                                                                                                                                                                                                                                                                                                                                                                                                                                                                                                                                                                                                                                                                                                                                                                                                                                                                                                                                                                                                                                                                                                                                                                                                                                                                                                                                                                                                                                                                                                                                                                                                                                                                                                                                                                                                                                                                                                                                                                                                                                                                                                                                                                                                                                                                                                                                                                                                                                                                                                                                                                                                                                                                                                                                                                                                                                                                                                                                                                                                                                                                                                                                                                                                                                                                                                                                                                                                                                                                                                                                                                                                                                                                                                                                                                                                                                                                                                                                                                                                                                                                                                                                                                                                                                                                                                                                                                                                                                                                                                                                                                                                                                                                                                                                                                                                                                                                                                                                                                                                                                                                                                                                                                                                                                                                                                                                                                                                                                                                                                                                                                                                                                                                                                                                                                                                                                                                                                                                                                                                                                                                                                                                                                                                                                                                                                                                                                                                                                                                                                                                                                                                                                                                                                                                                                                                                                                                                                                                                                                                                                                                                                                                                                                                                                                                                                                                                                                                                                                                                                                                                                                                                                                                                                                                                                                                                                                                                                                                                                                                                                                                                                                                                                                                                                                                                                                                                                                                                                                                                                                                                                                                                                                                                                                                                                                                                                                                                                                                                                                                                                                                                                                                                                                                                                                                                                                                                                                                                                                                                                                                                                                                                                                                                                                                                                                                                                                                                                                                                                                                                                                                                                                                                                                                                                                                                                                                                                                                                                                                                                                                                                                                                                                                                                                                                                                                                                                                                                                                                                                                                                                                                                                                                                                                                                                                                                                                                                                                                                                                                                                                                                                                                                                                                                                                                                                                                                                                                                                                                                                                                                                                                                                                                                                                                                                                                                                                                                                                                                                                                                                                                                                                                                                                                                                                                                                                                                                                                                                                                                                                                                                                                                                                                                                                                                                                                                                                                                                                                                                                                                                                                                                                                                                                                                                                                                                                                                                                                                                                                                                                                                                                                                                                                                                                                                                                                                                                                                                                                                                                                                                                                                                                                                                                                                                                                                                                                                                                                                                                                                                                                                                                                                                                                                                                                                                                                                                                                                                                                                                                                                                                                                                                                                                                                                                                                                                                                                                                                                                                                                                                                                                                                                                                                                                                                                                                                                                                                                                                                                                                                                                                                                                                                                                                                                                                                                                                                                                                                                                                                                                                                                                                                                                                                                                                                                                                                                                                                                                                                                                                                                                                                                                                                                                                                                                                                                                                                                                                                                                                                                                                                                                                                                                                                                                                                                                                                                                                                                                                                                                                                                                                                                                                                                                                                                                                                                                                                                                                                                                                                                                                                                                                                                                                                                                                                                                                                                                                                                                                                                                                                                                                                                                                                                                                                                                                                                                                                                                                                                                                                                                                                                                                                                                                                                                                                                                                                                                                                                                                                                                                                                                                                                                                                                                                                                                                                                                                                                                                                                                                                                                                                                                                                                                                                                                                                                                                                                                                                                                                                                                                                                                                                                                                                                                                                                                                                                                                                                                                                                                                                                                                                                                                                                                                                                                                                                                                                                                                                                                                                                                                                                                                                                                                                                                                                                                                                                                                                                                                                                                                                                                                                                                                                                                                                                                                                                                                                                                                                                                                                                                                                                                                                                                                                                                                                                                                                                                                                                                                                                                                                                                                                                                                                                                                                                                                                                                                                                                                                                                                                                                                                                                                                                                                                                                                                                                                                                                                                                                                                                                                                                                                                                                                                                                                                                                                                                                                                                                                                                                                                                                                                                                                                                                                                                                                                                                                                                                                                                                                                                                                                                                                                                                                                                                                                                                                                                                                                                                                                                                                                                                                                                                                                                                                                                                                                                                                                                                                                                                                                                                                                                                                                                                                                                                                                                                                                                                                                                                                                                                                                                                                                                                                                                                                                                                                                                                                                                                                                                                                                                                                                                                                                                                                                                                                                                                                                                                                                                                                                                                                                                                                                                                                                                                                                                                                                                                                                                                                                                                                                                                                                                                                                                                                                                                                                                                                                                                                                                                                                                                                                                                                                                                                                                                                                                                                                                                                                                                                                                                                                                                                                                                                                                                                                                                                                                                                                                                                                                                                                                                                                                                                                                                                                                                                                                                                                                                                                                                                                                                                                                                                                                                                                                                                                                                                                                                                                                                                                                                                                                                                                                                                                                                                                                                                                                                                                                                                                                                                                                                                                                                                                                                                                                                                                                                                                                                                                                                                                                                                                                                                                                                                                                                                                                                                                                                                                                                                                                                                                                                                                                                                                                                                                                                                                                                                                                                                                                                                                                                                                                                                                                                                                                                                                                                                                                                                                                                                                                                                                                                                                                                                                                                                                                                                                                                                                                                                                                                                                                                                                                                                                                                                                                                                                                                                                                                                                                                                                                                                                                                                                                                                                                                                                                                                                                                                                                                                                                                                                                                                                                                                                                                                                                                                                                                                                                                                                                                                                                                                                                                                                                                                                                                                                                                                                                                                                                                                                                                                                                                                                                                                                                                                                                                                                                                                                                                                                                                                                                                                                                                                                                                                                                                                                                                                                                                                                                                                                                                                                                                                                                                                                                                                                                                                                                                                                                                                                                                                                                                                                                                                                                                                                                                                                                                                                                                                                                                                                                                                                                                                                                                                                                                                                                                                                                                                                                                                                                                                                                                                                                                                                                                                                                                                                                                                                                                                                                                                                                                                                                                                                                                                                                                                                                                                                                                                                                                                                                                                                                                                                                                                                                                                                                                                                                                                                                                                                                                                                                                                                                                                                                                                                                                                                                                                                                                                                                                                                                                                                                                                                                                                                                                                                                                                                                                                                                                                                                                                                                                                                                                                                                                                                                                                                                                                                                                                                                                                                                                                                                                                                                                                                                                                                                                                                                                                                                                                                                                                                                                                                                                                                                                                                                                                                                                                                                                                                                                                                                                                                                                                                                                                                                                                                                                                                                                                                                                                                                                                                                                                                                                                                                                                                                                                                                                                                                                                                                                                                                                                                                                                                                                                                                                                                                                                                                                                                                                                                                                                                                                                                                                                                                                                                                                                                                                                                                                                                                                                                                                                                                                                                                                                                                                                                                                                                                                                                                                                                                                                                                                                                                                                                                                                                                                                                                                                                                                                                                                                                                                                                                                                                                                                                                                                                                                                                                                                                                                                                                                                                                                                                                                                                                                                                                                                                                                                                                                                                                                                                                                                                                                                                                                                                                                                                                                                                                                                                                                                                                                                                                                                                                                                                                                                                                                                                                                                                                                                                                                                                                                                                                                                                                                                                                                                                                                                                                                                                                                                                                                                                                                                                                                                                                                                                                                                                                                                                                                                                                                                                                                                                                                                                                                                                                                                                                                                                                                                                                                                                                                                                                                                                                                                                                                                                                                                                                                                                                                                                                                                                                                                                                                                                                                                                                                                                                                                                                                                                                                                                                                                                                                                                                                                                                                                                                                                                                                                                                                                                                                                                                                                                                                                                                                                                                                                                                                                                                                                                                                                                                                                                                                                                                                                                                                                                                                                                                                                                                                                                                                                                                                                                                                                                                                                                                                                                                                                                                                                                                                                                                                                                                                                                                                                                                                                                                                                                                                                                                                                                                                                                                                                                                                                                                                                                                                                                                                                                                                                                                                                                                                                                                                                                                                                                                                                                                                                                                                                                                                                                                                                                                                                                                                                                                                                                                                                                                                                                                                                                                                                                                                                                                                                                                                                                                                                                                                                                                                                                                                                                                                                                                                                                                                                                                                                                                                                                                                                                                                                                                                                                                                                                                                                                                                                                                                                                                                                                                                                                                                                                                                                                                                                                                                                                                                                                                                                                                                                                                                                                                                                                                                                                                                                                                                                                                                                                                                                                                                                                                                                                                                                                                                                                                                                                                                                                                                                                                                                                                                                                                                                                                                                                                                                                                                                                                                                                                                                                                                                                                                                                                                                                                                                                                                                                                                                                                                                                                                                                                                                                                                                                                                                                                                                                                                                                                                                                                                                                                                                                                                                                                                                                                                                                                                                                                                                                                                                                                                                                                                                                                                                                                                                                                                                                                                                                                                                                                                                                                                                                                                                                                                                                                                                                                                                                                                                                                                                                                                                                                                                                                                                                                                                                                                                                                                                                                                                                                                                                                                                                                                                                                                                                                                                                                                                                                                                                                                                                                                                                                                                                                                                                                                                                                                                                                                                                                                                                                                                                                                                                                                                                                                                                                                                                                                                                                                                                                                                                                                                                                                                                                                                                                                                                                                                                                                                                                                                                                                                                                                                                                                                                                                                                                                                                                                                                                                                                                                                                                                                                                                                         1   0.52417276    2.0151182 
  465800   0.99900502   0.52756493     2.026054 
  465900    1.0015733   0.53077918    2.0331207 
  466000    1.0001574    0.5227075    2.0229251 
  466100    1.0033046   0.52875263    2.0336911 
  466200    1.0023217   0.53278371    2.0362477 
  466300    1.0074129   0.52482812    2.0359289 
  466400    1.0035191   0.53231816    2.0375784 
  466500    1.0047429   0.53318167    2.0402774 
  466600    1.0010447   0.52613438    2.0276829 
  466700    1.0003901   0.52188239    2.0224491 
  466800    1.0005102   0.52722239    2.0279692 
  466900    1.0008761   0.52395067    2.0252464 
  467000    1.0022785   0.52177599    2.0251752 
  467100     1.001698   0.53019687    2.0327254 
  467200    1.0044721   0.53387797    2.0405676 
  467300   0.99897371   0.53196338    2.0304055 
  467400    1.0004864   0.52916495    2.0298762 
  467500   0.99600163   0.53270448    2.0266886 
  467600   0.99669782   0.52459269    2.0196211 
  467700    1.0006783   0.52619822    2.0271972 
  467800   0.99994891    0.5303119    2.0302168 
  467900    1.0043535   0.52711906    2.0336307 
  468000    1.0019413   0.52740253     2.030296 
  468100     1.002205   0.52850926    2.0317983 
  468200   0.99854969   0.52728881    2.0250949 
  468300   0.99725562   0.52033567    2.0162007 
  468400    1.0011369   0.52176942    2.0234563 
  468500   0.99746284   0.53111105    2.0272869 
  468600   0.99942072   0.52550696    2.0246196 
  468700   0.99899177   0.53210025    2.0305695 
  468800     1.003515   0.52963138    2.0348854 
  468900    1.0017185   0.52164219    2.0242015 
  469000    1.0009608   0.52691659    2.0283393 
  469100   0.99964366   0.52979652    2.0292436 
  469200   0.99782603   0.52787274    2.0245934 
  469300    1.0015719   0.52667738    2.0290167 
  469400   0.99927043   0.52738972    2.0262769 
  469500    1.0036371   0.52537654    2.0308137 
  469600   0.99832862   0.52311859    2.0205931 
  469700   0.99545235   0.52821873    2.0213789 
  469800   0.99844706   0.52615255    2.0238047 
  469900   0.99243428   0.52490759    2.0135407 
  470000    1.0028477   0.52769605    2.0319492 
  470100     1.001747   0.53058881    2.0331909 
  470200   0.99963802   0.52627137      2.02571 
  470300    1.0021097   0.53311944    2.0362655 
  470400    1.0006632   0.53280593    2.0337823 
  470500    0.9993862   0.52693151    2.0259924 
  470600    1.0016277    0.5231523    2.0255754 
  470700   0.99351223   0.53008127    2.0203313 
  470800   0.99864435   0.52632165    2.0242698 
  470900   0.99933547   0.52916359    2.0281484 
  471000   0.99615804   0.53459206    2.0288108 
  471100    1.0048439    0.5302336     2.037481 
  471200    0.9987101   0.52983924     2.027886 
  471300    1.0018443   0.53538041    2.0381283 
  471400    1.0054492   0.53120172    2.0393569 
  471500   0.99547243   0.52667129    2.0198616 
  471600    1.0014041   0.52895624    2.0310439 
  471700   0.99476415   0.52993459    2.0220625 
  471800   0.99970183   0.52540133    2.0249356 
  471900    1.0055816   0.52641073    2.0347647 
  472000   0.99718397   0.53372175    2.0294793 
  472100    1.0036194   0.52719996    2.0326105 
  472200    1.0028513   0.52529068    2.0295491 
  472300   0.99719502   0.53597946    2.0317536 
  472400    1.0010047   0.53084867    2.0323373 
  472500   0.99668075   0.52913219    2.0241349 
  472600    1.0008883   0.53186153    2.0331756 
  472700    1.0022929   0.53039154    2.0338124 
  472800   0.99872955   0.52624862    2.0243245 
  472900    1.0043688   0.53299789    2.0395325 
  473000    1.0040152   0.53622926    2.0422336 
  473100    1.0066587    0.5253593    2.0353288 
  473200    1.0060097   0.53232886    2.0413248 
  473300    1.0008502   0.53151621     2.032773 
  473400     1.000903   0.52617204     2.027508 
  473500    1.0001546   0.52769724    2.0279107 
  473600    0.9969814   0.53100705    2.0264608 
  473700   0.99706306   0.53051482     2.026091 
  473800    1.0001196   0.52476363    2.0249247 
  473900   0.99862731   0.53629059    2.0342131 
  474000    1.0050544   0.53460637    2.0421694 
  474100    1.0003756   0.52919933    2.0297444 
  474200     1.001961   0.53465511    2.0375782 
  474300    1.0041589    0.5340134    2.0402332 
  474400    0.9969859   0.52627689    2.0217374 
  474500    1.0001174   0.53575091    2.0359086 
  474600   0.99873937   0.53440083    2.0324915 
  474700    1.0003182   0.52761659    2.0280755 
  474800    1.0009093   0.52822996    2.0295754 
  474900   0.99640343   0.53696122     2.031548 
  475000   0.99839053   0.52409485    2.0216622 
  475100   0.99323904   0.52351979      2.01336 
  475200   0.99609987    0.5347639    2.0288953 
  475300    1.0011387    0.5283824     2.030072 
  475400    1.0007121   0.52253529     2.023585 
  475500   0.99846917   0.53454908    2.0322344 
  475600    1.0004266   0.53594084    2.0365623 
  475700    0.9961008    0.5255025    2.0196353 
  475800     1.002706   0.52752281    2.0315633 
  475900   0.99788516   0.54018648    2.0369958 
  476000    1.0028389   0.52274384    2.0269837 
  476100    1.0028158   0.53047439    2.0346796 
  476200   0.99941629   0.53886334    2.0379694 
  476300    1.0046545    0.5279753    2.0349385 
  476400   0.99603394   0.52960867    2.0236412 
  476500   0.99453639   0.53617264    2.0279589 
  476600    1.0006521   0.53288354    2.0338433 
  476700   0.99895269   0.52735788    2.0257685 
  476800    1.0016665   0.53750015    2.0399814 
  476900    1.0047963   0.53936759    2.0465435 
  477000    1.0024891   0.52924725    2.0329625 
  477100   0.99951446   0.53455168     2.033805 
  477200    1.0012616   0.53860296     2.040477 
  477300   0.99755698   0.52829203    2.0246091 
  477400      1.00008   0.52799176    2.0280933 
  477500   0.99740973   0.53814039    2.0342366 
  477600   0.99718803   0.53629767    2.0320613 
  477700    1.0071145   0.52713849    2.0377917 
  477800    1.0018698   0.53758572     2.040372 
  477900    1.0017761   0.53608614    2.0387318 
  478000    1.0003387   0.52841123    2.0289008 
  478100   0.99611615   0.53338797    2.0275438 
  478200   0.99773359   0.53726612    2.0338481 
  478300     1.002187   0.52653592    2.0297979 
  478400    0.9995738   0.52974414    2.0290864 
  478500    1.0008848   0.53650859    2.0378173 
  478600    1.0009367   0.53069421    2.0320808 
  478700   0.99920944   0.52783574    2.0266315 
  478800   0.99625582   0.53042181    2.0247872 
  478900   0.99505505   0.52728171    2.0198459 
  479000   0.99421627   0.52452909    2.0158352 
  479100   0.99783781   0.53120661    2.0279449 
  479200   0.99950963   0.53480202     2.034048 
  479300   0.99920354   0.52839166    2.0271786 
  479400    1.0027632   0.53251383    2.0366402 
  479500    1.0025805   0.53575872     2.039611 
  479600   0.99929128    0.5302581    2.0291766 
  479700   0.99751328   0.52946673    2.0257183 
  479800   0.99553238   0.53293589    2.0262161 
  479900   0.99939913   0.52837288    2.0274532 
  480000   0.99651529   0.52876295    2.0235175 
  480100     1.000317   0.53309196     2.033549 
  480200   0.99843378   0.53515962    2.0327919 
  480300    1.0005672   0.52769332    2.0285257 
  480400    1.0035842   0.53236001    2.0377178 
  480500    1.0008674   0.53313212    2.0344147 
  480600   0.99863144   0.53165738    2.0295861 
  480700   0.99361716   0.53407868    2.0244861 
  480800   0.99231671   0.53942823     2.027885 
  480900   0.99927344    0.5311188    2.0300105 
  481000    1.0004534   0.53448281    2.0351445 
  481100   0.99527775   0.53918891    2.0320872 
  481200    1.0038503   0.53500921    2.0407661 
  481300    1.0002092   0.53416249    2.0344578 
  481400   0.99866751   0.53306951    2.0310524 
  481500    1.0005368   0.53507899    2.0358658 
  481600   0.99179576   0.52982643    2.0175018 
  481700    1.0024696   0.52719345    2.0308794 
  481800   0.99547552   0.53153079    2.0247257 
  481900    1.0040355    0.5293377    2.0353724 
  482000    1.0046675   0.53015172    2.0371344 
  482100   0.99844745   0.53481489    2.0324677 
  482200    1.0050475   0.52944224     2.036995 
  482300   0.99599422   0.53015312    2.0241261 
  482400   0.99893399   0.53449999    2.0328826 
  482500   0.99446956   0.53201739    2.0237034 
  482600    1.0025017   0.53333726    2.0370713 
  482700    1.0001167   0.53683273    2.0369894 
  482800    1.0020375   0.53719858    2.0402364 
  482900    1.0040833   0.53489506    2.0410015 
  483000   0.99786846    0.5333052    2.0300895 
  483100    1.0044559   0.53005059     2.036716 
  483200    0.9977336   0.52814753    2.0247295 
  483300    1.0049619   0.52736516    2.0347894 
  483400   0.99717314   0.53159951    2.0273408 
  483500   0.99896396   0.53082161    2.0292491 
  483600    1.0011846   0.53080235    2.0325608 
  483700   0.99638728   0.53379024    2.0283528 
  483800    1.0046033   0.53274318    2.0396295 
  483900    1.0030809   0.53424718    2.0388501 
  484000    1.0041614   0.53327533    2.0394989 
  484100     1.002198   0.53111377    2.0343923 
  484200   0.99875741    0.5326948    2.0308125 
  484300   0.99723637   0.53277224    2.0286084 
  484400   0.99905063   0.53310287    2.0316604 
  484500   0.99692114   0.53701726    2.0323806 
  484600    1.0037174   0.53345781    2.0390155 
  484700    1.0019448   0.53489507    2.0377937 
  484800   0.99915641   0.53274222    2.0314584 
  484900    1.0018705   0.53480825    2.0375955 
  485000    0.9970944   0.53489996    2.0305232 
  485100   0.99970929   0.53190073    2.0314462 
  485200   0.99774138   0.53442238    2.0310161 
  485300   0.99854026   0.53521663    2.0330086 
  485400    1.0021337   0.52960659    2.0327887 
  485500    1.0046549   0.52747012     2.034434 
  485600    1.0037389    0.5340695    2.0396593 
  485700   0.99901706   0.53147736    2.0299845 
  485800    1.0010755   0.52528096    2.0268758 
  485900   0.99839404   0.52949641    2.0270691 
  486000   0.99709831    0.5294518    2.0250809 
  486100   0.99949923   0.52927616    2.0285066 
  486200      1.00041   0.53471327    2.0353099 
  486300   0.99830462   0.53321817    2.0306567 
  486400    1.0000005   0.53350737    2.0334897 
  486500    1.0000413   0.53292373    2.0329672 
  486600   0.99903755   0.53360942    2.0321473 
  486700   0.99970637   0.53274002    2.0322812 
  486800   0.99914373   0.52766192    2.0263591 
  486900   0.99516761   0.53284041    2.0255735 
  487000   0.99497113   0.53020965     2.022648 
  487100   0.99787217   0.53033672    2.0271266 
  487200   0.99839652   0.53724316    2.0348195 
  487300    1.0046297   0.53015089    2.0370769 
  487400    1.0013287   0.52981192    2.0317865 
  487500    1.0007182   0.53165132    2.0327102 
  487600   0.99936578   0.53099045    2.0300207 
  487700   0.99652225   0.52626976    2.0210348 
  487800   0.99996916   0.52786091    2.0277962 
  487900    0.9964326   0.52914618    2.0237767 
  488000    1.0058231   0.52551074    2.0342268 
  488100    1.0051643   0.52876999     2.036498 
  488200    1.0044526   0.53412021    2.0407806 
  488300    1.0003181   0.53656111    2.0370198 
  488400   0.99507162   0.53069125    2.0232803 
  488500    1.0026211   0.53347149    2.0373846 
  488600   0.99597908   0.53276738    2.0267176 
  488700    1.0001645   0.52880806    2.0290364 
  488800    1.0055469   0.53121346    2.0395152 
  488900    1.0047526   0.53230902    2.0394194 
  489000    1.0042848   0.53702448    2.0434332 
  489100    1.0034444   0.53534668    2.0404948 
  489200   0.99802425   0.53315782    2.0301758 
  489300   0.99841849   0.53107048    2.0286798 
  489400   0.99974069   0.53024926    2.0298419 
  489500   0.99965819   0.53117059    2.0306395 
  489600    1.0014708   0.53173957    2.0339273 
  489700   0.99912546   0.53500131    2.0336711 
  489800    1.0041889   0.53265847    2.0389233 
  489900    1.0041122   0.53313094    2.0392807 
  490000   0.99952381   0.53151949    2.0307868 
  490100   0.99900663   0.53157203    2.0300636 
  490200   0.99553008   0.53071238    2.0239892 
  490300   0.99552341   0.53361519     2.026882 
  490400   0.99892307   0.53328845    2.0316546 
  490500   0.99909406   0.53516659    2.0337893 
  490600    1.0017154   0.53525872    2.0378133 
  490700    1.0013695   0.53217871    2.0342145 
  490800   0.99938732   0.53598545     2.035048 
  490900    1.0009103   0.52871988    2.0300669 
  491000   0.99630379   0.52966359    2.0241009 
  491100   0.99416826   0.53206024    2.0232943 
  491200   0.99160546   0.53329767    2.0206876 
  491300   0.99899496   0.53176284    2.0302369 
  491400   0.99945297   0.53166021    2.0308212 
  491500   0.99828029    0.5307467    2.0281487 
  491600    1.0017435   0.53155162    2.0341485 
  491700   0.99762473   0.53410129      2.03052 
  491800    1.0044267   0.52536647     2.031988 
  491900    1.0009992   0.52957325    2.0310536 
  492000    1.0000336   0.52575142    2.0257834 
  492100   0.99626531   0.52707803    2.0214576 
  492200   0.99515795   0.52771531    2.0204339 
  492300   0.99998917    0.5274661    2.0274314 
  492400    1.0016185   0.52700086    2.0294101 
  492500   0.99908509   0.53022027    2.0288295 
  492600    1.0016741    0.5307733     2.033266 
  492700   0.99961588   0.52959056     2.028996 
  492800    1.0008134     0.528808    2.0300096 
  492900    1.0021956   0.52222171    2.0254966 
  493000   0.99441868   0.52613574    2.0177454 
  493100   0.99840735   0.52355931    2.0211519 
  493200   0.99710244    0.5270828    2.0227181 
  493300   0.99803175   0.52555469    2.0225839 
  493400    1.0016267   0.52502434     2.027446 
  493500    1.0006985   0.52567096    2.0267002 
  493600   0.99724234   0.52667327    2.0225184 
  493700    1.0028827   0.52588361    2.0301892 
  493800   0.99855486   0.52599123    2.0238051 
  493900    1.0020204   0.52371669    2.0267287 
  494000    1.0025446   0.52403674    2.0278351 
  494100   0.99815072   0.52393429     2.021142 
  494200    1.0004167   0.52454602    2.0251526 
  494300     0.995645   0.52691284     2.020362 
  494400   0.99783241   0.52567249    2.0224027 
  494500    1.0021865   0.52154005    2.0248013 
  494600   0.99994929   0.53057854     2.030484 
  494700    1.0042579   0.53006154    2.0364298 
  494800   0.99821708   0.53262534    2.0299326 
  494900    1.0016495   0.53078088    2.0332366 
  495000    0.9984498   0.52925938    2.0269157 
  495100   0.99950661   0.52672184    2.0259633 
  495200   0.99636292   0.52777666    2.0223027 
  495300   0.99611327   0.53022227    2.0243738 
  495400    1.0058503   0.52484575    2.0336026 
  495500   0.99905804    0.5319447    2.0305133 
  495600     1.003342   0.52863641    2.0336308 
  495700   0.99865844   0.52946949    2.0274387 
  495800   0.99611853   0.52851627    2.0226757 
  495900   0.99832967   0.52618295    2.0236591 
  496000   0.99461908   0.53065893    2.0225692 
  496100    1.0004593   0.53043912    2.0311097 
  496200    1.0051896   0.52793895    2.0357048 
  496300    1.0027365   0.52929206    2.0333783 
  496400     1.001272   0.52886456    2.0307541 
  496500    1.0010861   0.52910966    2.0307204 
  496600   0.99816833   0.52775584    2.0249899 
  496700    1.0000282   0.52455424    2.0245782 
  496800    1.0008735   0.52440636    2.0256981 
  496900    1.0002089   0.52316099    2.0234558 
  497000    1.0037893   0.51873631    2.0244017 
  497100    1.0007161   0.52388599    2.0249417 
  497200    1.0003525   0.52248062     2.022991 
  497300    1.0005171   0.51974281       2.0205 
  497400   0.99863797   0.52243012    2.0203687 
  497500   0.99633274   0.52412978    2.0186105 
  497600   0.99961538   0.51947693    2.0188816 
  497700   0.99732152   0.52787824    2.0238421 
  497800    1.0040254   0.52537204    2.0313916 
  497900    1.0007863   0.52789816    2.0290592 
  498000    1.0015158   0.52535209    2.0276074 
  498100    1.0037168   0.52334118    2.0288978 
  498200   0.99954635    0.5201683    2.0194694 
  498300   0.99981135   0.52029923    2.0199978 
  498400    1.0012433   0.52179241    2.0236389 
  498500   0.99964912   0.52219788    2.0216531 
  498600   0.99676744   0.52837261    2.0235054 
  498700    1.0022336   0.52532351    2.0286554 
  498800    1.0079368   0.52049204    2.0323787 
  498900   0.99936612   0.52485874    2.0238895 
  499000   0.99704278   0.52342079    2.0189666 
  499100   0.99909441   0.52216806    2.0207913 
  499200   0.99435664    0.5217421    2.0132587 
  499300   0.99738891   0.52606906     2.022134 
  499400    1.0040148   0.52454131    2.0305449 
  499500   0.99983608   0.52341424    2.0231499 
  499600    1.0014796   0.52659019    2.0287911 
  499700   0.99925193   0.52728014    2.0261396 
  499800   0.99919262   0.52310314    2.0218737 
  499900   0.99621276    0.5222917    2.0165925 
  500000   0.99430335   0.52288396    2.0143207 
Loop time of 38171.6 on 32 procs for 500000 steps with 81390 atoms

Performance: 2263.464 tau/day, 13.099 timesteps/s
68.7% CPU use with 4 MPI tasks x 8 OpenMP threads

MPI task timing breakdown:
Section |  min time  |  avg time  |  max time  |%varavg| %total
---------------------------------------------------------------
Pair    | 1034.1     | 6452       | 15967      |7612.1 | 16.90
Bond    | 0.085224   | 132.52     | 294.23     |1164.1 |  0.35
Neigh   | 3022.8     | 3097.2     | 3244.8     | 155.7 |  8.11
Comm    | 7356.5     | 13890      | 16775      |3268.4 | 36.39
Output  | 394.85     | 1299.3     | 1602.6     |1448.7 |  3.40
Modify  | 3620.2     | 9364.2     | 16232      |5327.8 | 24.53
Other   |            | 3937       |            |       | 10.31

Nlocal:    20347.5 ave 37360 max 8078 min
Histogram: 2 0 0 0 0 0 1 0 0 1
Nghost:    5569.75 ave 9382 max 2480 min
Histogram: 2 0 0 0 0 0 0 1 0 1
Neighs:    667380 ave 1.29133e+06 max 218038 min
Histogram: 2 0 0 0 0 0 1 0 0 1

Total # of neighbors = 2669519
Ave neighs/atom = 32.7991
Ave special neighs/atom = 1.05013
Neighbor list builds = 31983
Dangerous builds = 0


Total wall time: 11:20:16
