LAMMPS (3 Mar 2020)
  using 8 OpenMP thread(s) per MPI task
## binning x:60-160, y:0.0-34.4, z:2.8-29.0
## binning x:60-90 x:120-150

############################################################
#####	 	    Argon sandwich	   	   #########
############################################################
variable		T equal 1.0
variable 		V equal vol
variable 		dt equal 0.002

units			lj
atom_style		bond
special_bonds 		fene

dimension 		3
boundary		f p f

read_data         	tank_atomdata
  orthogonal box = (0 0 0) to (39 34.5 48)
  2 by 1 by 2 MPI processor grid
  reading atoms ...
  40455 atoms
  scanning bonds ...
  1 = max bonds/atom
  reading bonds ...
  26040 bonds
  2 = max # of 1-2 neighbors
  2 = max # of special neighbors
  special bonds CPU = 0.00386405 secs
  read_data CPU = 0.0884509 secs
#read_restart 		water.restart.mpiio

############################################################
#############INTERACTION PARAMETERS#########################
group                   bread     type 2
10695 atoms in group bread
group                   ham       type 1
29760 atoms in group ham

mass                    2       1.0  ## atomic mass of platinum
mass                    1       1.0  ## atomic mass of platinum

neighbor        	0.3 bin
neigh_modify		every 1 delay 10 check yes
################### L-J potential #####################
pair_style              lj/cut  2.5

pair_coeff              1 1  1.0 1.0 2.5
pair_coeff              1 2  0.8 1.0 2.5
pair_coeff              2 2  1.0 1.0 2.5
#################### FENE bond #########################
bond_style 		fene
bond_coeff 		1 10.2478 1.4 1.0 1.0
#################### Harmonic potential ##################
fix 			wall bread spring/self 10000.0

thermo 			10
min_style 		fire
min_modify 		dmax 0.01
minimize 		1.0e-5 1.0e-7 500 10000
WARNING: Using 'neigh_modify every 1 delay 0 check yes' setting during minimization (../min.cpp:190)
Neighbor list info ...
  update every 1 steps, delay 0 steps, check yes
  max neighbors/atom: 2000, page size: 100000
  master list distance cutoff = 2.8
  ghost atom cutoff = 2.8
  binsize = 1.4, bins = 28 25 35
  1 neighbor lists, perpetual/occasional/extra = 1 0 0
  (1) pair lj/cut, perpetual
      attributes: half, newton on
      pair build: half/bin/newton
      stencil: half/bin/3d/newton
      bin: standard
  Parameters for fire: 
    dmax delaystep dtgrow dtshrink alpha0 alphashrink tmax tmin    integrator halfstepback 
    0.01        20    1.1      0.5   0.25        0.99   10 0.02 eulerimplicit          yes 
Per MPI rank memory allocation (min/avg/max) = 12.13 | 16.18 | 20.21 Mbytes
Step Temp E_pair E_mol TotEng Press 
       0            0   -4.0125577    5.6773841    1.6648263   -2.8219073 
      10  0.033112766   -4.1976374    5.6098514    1.4618819   -3.1237408 
      20  0.097573513   -4.2097809    5.4752856    1.4118614   -2.5078724 
      30   0.17262711   -4.2247618    5.3265066    1.3606791   -1.7465999 
      40 0.0031307015    -4.239724    5.2886848    1.0536568   -1.5824719 
      50  0.018764651    -4.251194    5.2687277    1.0456799   -1.3622275 
      60  0.019698772   -4.2782481    5.2534932    1.0047925   -1.0128284 
      70  0.000136105   -4.2858652    5.2528054   0.96714437  -0.92678657 
      80 0.0012960883   -4.2893161    5.2528732   0.96550118   -0.8913509 
      90 0.0037141962   -4.2961904    5.2536306   0.96301139  -0.81482537 
     100 0.0046938497   -4.3051017    5.2591167   0.96105557  -0.60424048 
     110 0.00010162163   -4.3121843    5.2590285   0.94699664  -0.62861564 
     120 0.00043979814   -4.3138392    5.2596588   0.94647932  -0.61435752 
     130 0.0012398407   -4.3165952    5.2612151   0.94647962  -0.58063205 
     140 3.8821775e-06   -4.3227192    5.2639405   0.94122704  -0.53216355 
     150 9.0806265e-05   -4.3233062    5.2640985   0.94092843  -0.53019165 
     160 0.00029559816   -4.3242628    5.2644491   0.94062974  -0.52499452 
     170 0.0010142311   -4.3268852    5.2655767   0.94021277  -0.50831969 
     180 3.2067497e-05   -4.3322875    5.2673646   0.93512514   -0.4874127 
     190 0.00012762253   -4.3328695     5.267454     0.934776  -0.48738778 
     200 0.00039707103   -4.3336121    5.2676298   0.93461324  -0.48604582 
     210 0.0013905341   -4.3360071    5.2681325   0.93421113  -0.48330418 
     220 2.8630742e-05    -4.337193    5.2682933    0.9311433  -0.48456557 
     230 0.00016103817   -4.3375907    5.2683292    0.9309801  -0.48503343 
     240 0.00046761701   -4.3383474    5.2684017   0.93075575  -0.48572778 
     250 0.0015169726   -4.3426941    5.2686319   0.92821317  -0.49368135 
     260 5.3912911e-05   -4.3415492    5.2686304   0.92716212  -0.49136602 
     270 0.0002208222   -4.3418508    5.2686436   0.92712402   -0.4920342 
     280 0.00066253463    -4.342716    5.2686686   0.92694636  -0.49410658 
     290 2.4246489e-06   -4.3448276    5.2686906   0.92386658  -0.50055208 
     300 8.5298291e-05   -4.3451738    5.2686893   0.92364342  -0.50148806 
     310 0.00029393039   -4.3456742    5.2686847   0.92345139  -0.50288578 
     320 0.00099613594   -4.3471832    5.2686577   0.92296864  -0.50732327 
     330 2.841308e-05   -4.3499478    5.2685488   0.91864367    -0.518168 
     340 0.00016239062   -4.3505128    5.2685328   0.91826349  -0.51992743 
     350 0.00051753333   -4.3511131    5.2684939   0.91815708  -0.52225019 
     360  0.001905586   -4.3536197    5.2683132   0.91755187  -0.53223682 
     370 4.4320785e-05   -4.3547298    5.2682109   0.91354755  -0.53860518 
     380 0.00027220145   -4.3550531    5.2681742    0.9135294  -0.54008527 
     390 0.00081167692   -4.3559507    5.2680844   0.91335121  -0.54398102 
     400 0.0034144212   -4.3617718    5.2675265   0.91087615  -0.56851802 
     410 9.5350844e-05   -4.3630378    5.2672506   0.90435581   -0.5788738 
     420 0.00072422862    -4.364344    5.2671093    0.9038516  -0.58435682 
     430 0.0022498799   -4.3670235    5.2667585    0.9031098  -0.59685313 
     440 6.0073847e-05   -4.3727714    5.2656405   0.89295914  -0.63436747 
     450 0.00033505172   -4.3756112     5.265554   0.89044539  -0.64332078 
     460 0.0014366229   -4.3776614    5.2652983   0.88979179  -0.65268563 
     470 0.0046904527   -4.3834706    5.2645369   0.88810175  -0.68054147 
     480 6.1208374e-05   -4.3928899    5.2632894   0.87049134  -0.73412075 
     490 0.0007819845   -4.3942192    5.2631369   0.87009065   -0.7400224 
     500 0.0024766867   -4.3973067    5.2627915   0.86919972  -0.75382413 
Loop time of 6.15383 on 32 procs for 500 steps with 40455 atoms

92.3% CPU use with 4 MPI tasks x 8 OpenMP threads

Minimization stats:
  Stopping criterion = max iterations
  Energy initial, next-to-last, final = 
          1.6648263384     0.865991639515     0.865484785903
  Force two-norm initial, final = 15728.6 316.388
  Force max component initial, final = 591.326 5.97683
  Final line search alpha, max atom move = 0 0
  Iterations, force evaluations = 500 527

MPI task timing breakdown:
Section |  min time  |  avg time  |  max time  |%varavg| %total
---------------------------------------------------------------
Pair    | 1.9145     | 3.0549     | 4.15       |  62.6 | 49.64
Bond    | 0.11885    | 0.17376    | 0.23134    |  13.0 |  2.82
Neigh   | 0.07097    | 0.073736   | 0.076505   |   1.0 |  1.20
Comm    | 0.90532    | 2.236      | 3.533      |  80.1 | 36.33
Output  | 0.027377   | 0.028199   | 0.028918   |   0.4 |  0.46
Modify  | 0.012601   | 0.018759   | 0.02606    |   4.3 |  0.30
Other   |            | 0.5685     |            |       |  9.24

Nlocal:    10113.8 ave 13041 max 7233 min
Histogram: 2 0 0 0 0 0 0 0 0 2
Nghost:    5362 ave 6333 max 4430 min
Histogram: 1 1 0 0 0 0 0 0 1 1
Neighs:    356698 ave 479462 max 233468 min
Histogram: 2 0 0 0 0 0 0 0 0 2

Total # of neighbors = 1426790
Ave neighs/atom = 35.2686
Ave special neighs/atom = 1.28736
Neighbor list builds = 5
Dangerous builds = 0
