LAMMPS (3 Mar 2020)
  using 8 OpenMP thread(s) per MPI task
## binning x:130-500, y:0.0-121.83, z:11.79-98.0

############################################################
#####	 	    Argon sandwich	   	   #########
############################################################
variable		T equal 33.0
variable 		V equal vol
variable 		dt equal 5.0

units			real
atom_style		atomic
dimension 		3
boundary		p p p

read_data		atomdata
  orthogonal box = (0 0 0) to (687.75 121.83 110.04)
  4 by 1 by 1 MPI processor grid
  reading atoms ...
  179040 atoms
  read_data CPU = 0.560084 secs
#read_data         	atomdata_small
#read_restart 		water.restart.mpiio

############################################################
#############INTERACTION PARAMETERS#########################
group                   bread     type 2
130200 atoms in group bread
group                   ham       type 1
48840 atoms in group ham

mass                    2       195.084  ## atomic mass of platinum
mass                    1       39.95  ## atomic mass of argon

neighbor        	2.0 bin
neigh_modify		every 1 delay 10 check yes

################# hybrid potential #######################
#pair_style 		hybrid/overlay lj/cut 18.7 sw

#pair_coeff              * * sw mW.sw mW NULL
#pair_coeff	    	2 2  lj/cut 15.999 2.47 7.0
#pair_coeff		1 2  lj/cut 0.9 2.8140 7.0
################### L-J potential #####################
pair_style             lj/cut/opt  5.5

pair_coeff             1 1  0.24 3.4  18.7
pair_coeff             1 2  0.168 2.72  18.7
pair_coeff             2 2  15.999 2.47  7.0
######################################################

fix	    		f1 bread setforce 0.0 0.0 0.0
thermo			10
min_style 		fire
#minimize    		1.0e-5 1.0e-7 200 10000
minimize 		1.0e-5 1.0e-7 200 2000
WARNING: Using 'neigh_modify every 1 delay 0 check yes' setting during minimization (../min.cpp:190)
Neighbor list info ...
  update every 1 steps, delay 0 steps, check yes
  max neighbors/atom: 2000, page size: 100000
  master list distance cutoff = 20.7
  ghost atom cutoff = 20.7
  binsize = 10.35, bins = 67 12 11
  1 neighbor lists, perpetual/occasional/extra = 1 0 0
  (1) pair lj/cut/opt, perpetual
      attributes: half, newton on
      pair build: half/bin/atomonly/newton
      stencil: half/bin/3d/newton
      bin: standard
  Parameters for fire: 
    dmax delaystep dtgrow dtshrink alpha0 alphashrink tmax tmin    integrator halfstepback 
     0.1        20    1.1      0.5   0.25        0.99   10 0.02 eulerimplicit          yes 
Per MPI rank memory allocation (min/avg/max) = 60.47 | 91.73 | 136.2 Mbytes
Step Temp E_pair E_mol TotEng Press 
       0            0    -11277112            0    -11277112      74132.1 
      10    2321794.5    -13496144            0 1.225602e+09      6151263 
      20    961407.19    -14165802            0 4.9891919e+08    2531347.7 
      30     679755.5    -15233836            0 3.4753893e+08      1752675 
      40    445893.96    -15474893            0 2.2249036e+08    1125798.1 
      50    310536.15    -15542522            0 1.501848e+08    765147.38 
      60    187613.78    -15566945            0     84559013    438887.28 
      70    98706.518    -15576772            0     37101046    203187.81 
      80    40429.438    -15581575            0    5994857.9    48749.186 
      90    12392.752    -15584162            0   -8970382.7   -25562.331 
      95    5876.7118    -15585039            0    -12448748   -42842.588 
Loop time of 99.3916 on 32 procs for 95 steps with 179040 atoms

71.9% CPU use with 4 MPI tasks x 8 OpenMP threads

Minimization stats:
  Stopping criterion = energy tolerance
  Energy initial, next-to-last, final = 
        -11277112.4789     -15584887.0007     -15585038.7841
  Force two-norm initial, final = 4.36107e+06 64.7682
  Force max component initial, final = 1.71204e+06 1.77338
  Final line search alpha, max atom move = 0 0
  Iterations, force evaluations = 95 96

MPI task timing breakdown:
Section |  min time  |  avg time  |  max time  |%varavg| %total
---------------------------------------------------------------
Pair    | 3.262      | 26.471     | 80.459     | 616.9 | 26.63
Neigh   | 2.0363     | 6.3828     | 16.988     | 244.9 |  6.42
Comm    | 1.1511     | 47.064     | 92.473     | 557.2 | 47.35
Output  | 0.0054989  | 0.0062612  | 0.0075676  |   1.0 |  0.01
Modify  | 0.0094967  | 0.016204   | 0.027685   |   5.4 |  0.02
Other   |            | 19.45      |            |       | 19.57

Nlocal:    44760 ave 61766 max 32364 min
Histogram: 2 0 0 0 0 0 1 0 0 1
Nghost:    85454 ave 97526 max 75828 min
Histogram: 2 0 0 0 0 0 0 1 0 1
Neighs:    8.85027e+06 ave 1.74625e+07 max 2.80159e+06 min
Histogram: 2 0 0 0 0 0 1 0 0 1

Total # of neighbors = 35401091
Ave neighs/atom = 197.727
Neighbor list builds = 10
Dangerous builds = 1

############################################################
#############EQUILIBRATION PARAMETERS######################
velocity 		ham create ${T} 12345
velocity 		ham create 33 12345
compute 		myTemp ham temp
fix			1 ham nvt temp ${T} ${T} 100.0
fix			1 ham nvt temp 33 ${T} 100.0
fix			1 ham nvt temp 33 33 100.0
fix_modify   		1 temp myTemp
WARNING: Temperature for fix modify is not for group all (../fix_nh.cpp:1409)

fix	    		f2 bread setforce 0.0 0.0 0.0
velocity		bread set 0.0 0.0 0.0
timestep 		${dt}
timestep 		5

run 			50000
Per MPI rank memory allocation (min/avg/max) = 60.47 | 91.73 | 136.2 Mbytes
Step Temp E_pair E_mol TotEng Press 
      95    9.0018767    -15585039            0    -15580235   -58368.175 
     100     8.799166    -15584929            0    -15580233   -58364.184 
     110    7.5040842    -15584186            0    -15580181   -58336.637 
     120    6.0384019    -15583296            0    -15580073   -58303.019 
     130    5.6013251    -15582918            0    -15579929   -58287.115 
     140    6.1965614    -15583065            0    -15579758   -58290.588 
     150    7.0415621    -15583324            0    -15579566   -58299.653 
     160    7.6863567    -15583470            0    -15579368   -58305.759 
     170    8.1860111    -15583546            0    -15579178   -58309.422 
     180    8.6653628    -15583629            0    -15579005    -58313.03 
     190    9.1137834    -15583731            0    -15578867   -58317.145 
     200    9.4408428    -15583835            0    -15578797   -58321.418 
     210    9.5248267    -15583928            0    -15578845   -58325.627 
     220    9.4155239    -15584018            0    -15578993   -58329.961 
     230    9.3162162    -15584122            0    -15579151   -58334.723 
     240    9.2718125    -15584246            0    -15579298   -58339.949 
     250    9.2445421    -15584372            0    -15579439   -58345.057 
     260    9.2045252    -15584485            0    -15579573   -58349.523 
     270    9.1691885    -15584594            0    -15579700    -58353.54 
     280    9.1599101    -15584709            0    -15579820   -58357.469 
     290    9.1522468    -15584822            0    -15579937   -58361.016 
     300    9.1185014    -15584917            0    -15580051   -58363.742 
     310    9.0726134    -15584999            0    -15580157   -58365.786 
     320    9.0451285    -15585080            0    -15580253   -58367.618 
     330    9.0475169    -15585167            0    -15580339   -58369.525 
     340    9.0702821    -15585261            0    -15580421   -58371.523 
     350    9.0919378    -15585358            0    -15580505   -58373.416 
     360    9.0881866    -15585445            0    -15580595   -58374.838 
     370    9.0629085    -15585522            0    -15580685   -58375.728 
     380    9.0511538    -15585602            0    -15580772   -58376.531 
     390    9.0620741    -15585691            0    -15580854   -58377.449 
     400    9.0775745    -15585782            0    -15580937   -58378.335 
     410    9.0874152    -15585872            0    -15581023   -58379.106 
     420    9.0841626    -15585959            0    -15581111   -58379.633 
     430    9.0701085    -15586041            0    -15581201   -58379.877 
     440    9.0550543    -15586120            0    -15581288    -58379.93 
     450    9.0482982    -15586199            0    -15581370   -58379.948 
     460    9.0572527    -15586284            0    -15581450   -58380.117 
     470    9.0742506    -15586372            0    -15581529   -58380.433 
     480     9.088228    -15586463            0    -15581613     -58380.8 
     490    9.0869585    -15586549            0    -15581700   -58380.996 
     500    9.0722817    -15586630            0    -15581788   -58380.926 
     510    9.0670029    -15586714            0    -15581875   -58380.847 
     520     9.075508    -15586803            0    -15581960   -58380.854 
     530    9.0872181    -15586896            0    -15582046   -58380.863 
     540     9.093377    -15586987            0    -15582134   -58380.786 
     550    9.0921492    -15587077            0    -15582224   -58380.572 
     560    9.0672912    -15587154            0    -15582315   -58379.895 
     570    9.0374402    -15587224            0    -15582400   -58378.922 
     580    9.0381461    -15587302            0    -15582479   -58378.174 
     590      9.05612    -15587386            0    -15582553   -58377.566 
     600     9.068906    -15587468            0    -15582628   -58376.881 
     610    9.0691603    -15587547            0    -15582707   -58376.043 
     620    9.0567658    -15587621            0    -15582787   -58374.993 
     630    9.0477189    -15587694            0    -15582865   -58373.929 
     640    9.0620373    -15587778            0    -15582942   -58373.223 
     650    9.0929592    -15587873            0    -15583020    -58372.92 
     660    9.1035186    -15587963            0    -15583105   -58372.521 
     670     9.079688    -15588039            0    -15583194   -58371.687 
     680    9.0422748    -15588106            0    -15583280    -58370.53 
     690    9.0294588    -15588177            0    -15583358    -58369.52 
     700    9.0514052    -15588261            0    -15583431   -58368.866 
     710    9.0745721    -15588347            0    -15583504   -58368.201 
     720    9.0717412    -15588423            0    -15583581   -58367.168 
     730    9.0657569    -15588499            0    -15583661   -58366.075 
     740    9.0645109    -15588578            0    -15583740   -58365.059 
     750    9.0651952    -15588657            0    -15583819   -58364.119 
     760    9.0600742    -15588733            0    -15583898   -58363.137 
     770    9.0518629    -15588807            0    -15583976   -58362.086 
     780    9.0533702    -15588883            0    -15584051   -58361.088 
     790    9.0530977    -15588957            0    -15584126   -58359.947 
     800    9.0395498    -15589023            0    -15584199   -58358.467 
     810    9.0354953    -15589091            0    -15584269   -58356.986 
     820    9.0675351    -15589177            0    -15584338   -58356.018 
     830    9.1010867    -15589269            0    -15584411   -58355.231 
     840    9.0942953    -15589347            0    -15584494   -58354.032 
     850    9.0685143    -15589418            0    -15584579   -58352.604 
     860    9.0649812    -15589498            0    -15584660   -58351.496 
     870    9.0769207    -15589584            0    -15584740   -58350.622 
     880    9.0663048    -15589659            0    -15584821    -58349.35 
     890     9.030803    -15589718            0    -15584899   -58347.467 
     900    9.0106513    -15589778            0    -15584969    -58345.48 
     910    9.0253482    -15589848            0    -15585031     -58343.8 
     920      9.06312    -15589929            0    -15585092   -58342.505 
     930    9.0924582    -15590012            0    -15585160   -58341.337 
     940    9.0892949    -15590087            0    -15585237   -58339.924 
     950    9.0556106    -15590150            0    -15585317   -58338.074 
     960    9.0159833    -15590204            0    -15585392   -58335.947 
     970    9.0203493    -15590272            0    -15585458   -58334.285 
     980    9.0625869    -15590357            0    -15585520   -58333.179 
     990    9.0832264    -15590436            0    -15585588   -58331.908 
    1000    9.0716187    -15590504            0    -15585663    -58330.27 
    1010    9.0457253    -15590566            0    -15585738   -58328.375 
    1020    9.0223925    -15590624            0    -15585809    -58326.37 
    1030    9.0263151    -15590691            0    -15585874   -58324.629 
    1040    9.0508034    -15590765            0    -15585935   -58323.147 
    1050    9.0558531    -15590833            0    -15586000   -58321.391 
    1060    9.0384568    -15590890            0    -15586066   -58319.278 
    1070    9.0367052    -15590954            0    -15586131   -58317.349 
    1080    9.0530696    -15591026            0    -15586195   -58315.728 
    1090    9.0560753    -15591094            0    -15586261   -58314.024 
    1100    9.0403682    -15591153            0    -15586328   -58312.121 
    1110    9.0288211    -15591212            0    -15586393   -58310.281 
    1120    9.0400714    -15591280            0    -15586455   -58308.772 
    1130    9.0618978    -15591354            0    -15586518   -58307.481 
    1140    9.0568235    -15591418            0    -15586584   -58305.869 
    1150    9.0245017    -15591468            0    -15586651   -58303.816 
    1160    9.0126331    -15591523            0    -15586713   -58301.938 
    1170    9.0408065    -15591594            0    -15586769   -58300.618 
    1180    9.0752295    -15591672            0    -15586829   -58299.539 
    1190    9.0779353    -15591740            0    -15586896   -58298.196 
    1200    9.0391271    -15591791            0    -15586967   -58296.251 
    1210     8.999921    -15591835            0    -15587032   -58294.064 
    1220    8.9929512    -15591887            0    -15587088   -58292.042 
    1230    9.0069194    -15591942            0    -15587135    -58290.11 
    1240    9.0373785    -15592003            0    -15587180   -58288.403 
    1250    9.0761074    -15592074            0    -15587230   -58287.057 
    1260    9.0879274    -15592142            0    -15587292   -58285.694 
    1270    9.0554552    -15592194            0    -15587361   -58283.915 
    1280    9.0167677    -15592241            0    -15587429   -58281.997 
    1290     9.007561    -15592296            0    -15587488   -58280.308 
    1300    9.0133109    -15592351            0    -15587541   -58278.632 
    1310    9.0113904    -15592400            0    -15587590   -58276.724 
    1320    9.0132658    -15592447            0    -15587637   -58274.849 
    1330    9.0279965    -15592500            0    -15587682   -58273.247 
    1340    9.0424286    -15592556            0    -15587730    -58271.81 
    1350    9.0590074    -15592617            0    -15587783   -58270.592 
    1360    9.0572041    -15592675            0    -15587842   -58269.225 
    1370    9.0338649    -15592724            0    -15587903   -58267.522 
    1380    9.0207276    -15592776            0    -15587962   -58265.854 
    1390    9.0245731    -15592833            0    -15588017   -58264.352 
    1400    9.0293787    -15592888            0    -15588070   -58262.853 
    1410    9.0404334    -15592947            0    -15588122    -58261.48 
    1420    9.0386674    -15593001            0    -15588177   -58259.951 
    1430    9.0009574    -15593035            0    -15588232   -58257.822 
    1440    8.9746926    -15593068            0    -15588279   -58255.672 
    1450    9.0051601    -15593122            0    -15588316   -58254.225 
    1460    9.0530058    -15593183            0    -15588352   -58253.136 
    1470    9.0572289    -15593231            0    -15588397   -58251.691 
    1480    9.0212882    -15593265            0    -15588450   -58249.832 
    1490    8.9884035    -15593297            0    -15588500   -58247.936 
    1500    8.9796697    -15593333            0    -15588541   -58246.178 
    1510    8.9983125    -15593376            0    -15588574   -58244.647 
    1520    9.0346132    -15593426            0    -15588605    -58243.41 
    1530     9.057833    -15593476            0    -15588642   -58242.265 
    1540    9.0555104    -15593523            0    -15588690    -58241.11 
    1550    9.0401229    -15593568            0    -15588744   -58239.962 
    1560    9.0166431    -15593610            0    -15588798   -58238.646 
    1570    8.9989189    -15593650            0    -15588847   -58237.204 
    1580    9.0041827    -15593695            0    -15588890   -58235.904 
    1590    9.0211781    -15593744            0    -15588930   -58234.711 
    1600    9.0303434    -15593790            0    -15588971   -58233.448 
    1610    9.0191917    -15593828            0    -15589014   -58231.919 
    1620    8.9944586    -15593857            0    -15589057   -58230.099 
    1630    8.9863478    -15593889            0    -15589094   -58228.321 
    1640    8.9991105    -15593927            0    -15589124   -58226.656 
    1650    9.0015577    -15593957            0    -15589153   -58224.735 
    1660    8.9981438    -15593982            0    -15589180   -58222.684 
    1670    9.0153936    -15594017            0    -15589205   -58220.957 
    1680     9.040335    -15594058            0    -15589234    -58219.49 
    1690    9.0414354    -15594095            0    -15589270   -58217.924 
    1700      9.02024    -15594126            0    -15589312   -58216.208 
    1710    8.9992689    -15594156            0    -15589353   -58214.499 
    1720    8.9959975    -15594191            0    -15589390   -58212.953 
    1730    9.0012693    -15594227            0    -15589423   -58211.449 
    1740    9.0095767    -15594262            0    -15589454   -58209.979 
    1750    9.0214025    -15594299            0    -15589485   -58208.628 
    1760    9.0223898    -15594333            0    -15589518   -58207.219 
    1770    9.0065812    -15594361            0    -15589554   -58205.604 
    1780    8.9903385    -15594386            0    -15589588    -58203.92 
    1790    8.9965884    -15594418            0    -15589617   -58202.479 
    1800    9.0348136    -15594465            0    -15589644   -58201.541 
    1810    9.0581506    -15594512            0    -15589677   -58200.607 
    1820      9.02522    -15594537            0    -15589720   -58199.055 
    1830    8.9765618    -15594553            0    -15589762   -58197.203 
    1840    8.9603401    -15594576            0    -15589794    -58195.55 
    1850    8.9739916    -15594603            0    -15589813   -58194.033 
    1860    9.0114247    -15594635            0    -15589826   -58192.696 
    1870    9.0515121    -15594672            0    -15589841   -58191.479 
    1880    9.0452397    -15594696            0    -15589868   -58189.869 
    1890    9.0038007    -15594708            0    -15589903   -58187.964 
    1900    8.9933669    -15594736            0    -15589936   -58186.552 
    1910    9.0119474    -15594774            0    -15589965   -58185.554 
    1920    9.0122597    -15594803            0    -15589994   -58184.279 
    1930    8.9927951    -15594822            0    -15590023   -58182.641 
    1940      8.98531    -15594844            0    -15590048   -58181.018 
    1950    8.9944625    -15594869            0    -15590069   -58179.469 
    1960    9.0015325    -15594890            0    -15590086   -58177.785 
    1970    9.0046107    -15594910            0    -15590104   -58176.033 
    1980    9.0084294    -15594929            0    -15590122   -58174.383 
    1990    9.0279127    -15594959            0    -15590141   -58173.173 
    2000     9.049242    -15594997            0    -15590167   -58172.313 
    2010    9.0329165    -15595023            0    -15590202   -58171.185 
    2020     8.994637    -15595040            0    -15590239   -58169.776 
    2030    8.9761178    -15595061            0    -15590270   -58168.479 
    2040    8.9834649    -15595087            0    -15590293   -58167.334 
    2050    8.9986139    -15595113            0    -15590310   -58166.127 
    2060    8.9967242    -15595128            0    -15590326   -58164.545 
    2070    8.9799997    -15595132            0    -15590340   -58162.606 
    2080    8.9778466    -15595140            0    -15590348   -58160.706 
    2090    9.0030077    -15595156            0    -15590351   -58159.073 
    2100    9.0354432    -15595176            0    -15590354   -58157.573 
    2110    9.0362376    -15595188            0    -15590366   -58155.848 
    2120    9.0175946    -15595198            0    -15590386   -58154.157 
    2130    9.0029943    -15595214            0    -15590409   -58152.765 
    2140    8.9980128    -15595234            0    -15590432    -58151.62 
    2150    9.0048043    -15595258            0    -15590452   -58150.646 
    2160     9.002464    -15595277            0    -15590472   -58149.499 
    2170    8.9884012    -15595289            0    -15590492   -58148.136 
    2180    8.9823484    -15595301            0    -15590507    -58146.82 
    2190    8.9948534    -15595318            0    -15590518   -58145.683 
    2200    9.0095871    -15595335            0    -15590527   -58144.527 
    2210    9.0085373    -15595345            0    -15590537   -58143.158 
    2220    9.0054684    -15595356            0    -15590550   -58141.814 
    2230    9.0051688    -15595369            0    -15590563   -58140.577 
    2240    8.9992857    -15595380            0    -15590577   -58139.323 
    2250    8.9880253    -15595387            0    -15590591   -58138.003 
    2260    8.9894482    -15595398            0    -15590600   -58136.799 
    2270    9.0112823    -15595417            0    -15590608   -58135.815 
    2280    9.0274525    -15595435            0    -15590617   -58134.788 
    2290    9.0256033    -15595450            0    -15590634   -58133.655 
    2300    9.0050332    -15595461            0    -15590655   -58132.374 
    2310    8.9834646    -15595469            0    -15590675   -58131.104 
    2320    8.9888484    -15595487            0    -15590690   -58130.238 
    2330    9.0119506    -15595511            0    -15590702   -58129.692 
    2340    9.0190422    -15595529            0    -15590716   -58129.013 
    2350    9.0079575    -15595541            0    -15590733   -58128.132 
    2360    9.0135971    -15595563            0    -15590752   -58127.473 
    2370    8.9952661    -15595573            0    -15590772   -58126.353 
    2380    8.9388318    -15595558            0    -15590787   -58124.417 
    2390    8.9400314    -15595558            0    -15590787   -58122.984 
    2400    9.0266628    -15595590            0    -15590772   -58122.622 
    2410    9.0880492    -15595614            0    -15590764   -58122.151 
    2420    9.0571437    -15595610            0    -15590776   -58120.881 
    2430    9.0011722    -15595605            0    -15590801   -58119.608 
    2440    8.9891375    -15595618            0    -15590821   -58118.918 
    2450      8.98993    -15595632            0    -15590835   -58118.282 
    2460    8.9849701    -15595640            0    -15590845   -58117.462 
    2470    8.9760412    -15595641            0    -15590851   -58116.489 
    2480    8.9860286    -15595646            0    -15590850   -58115.693 
    2490     9.022217    -15595661            0    -15590846   -58115.253 
    2500    9.0511066    -15595676            0    -15590846    -58114.88 
    2510    9.0429668    -15595686            0    -15590860   -58114.399 
    2520    9.0245776    -15595700            0    -15590884   -58114.154 
    2530    9.0237456    -15595720            0    -15590904   -58114.076 
    2540    9.0110245    -15595728            0    -15590919   -58113.573 
    2550    8.9880682    -15595727            0    -15590930   -58112.687 
    2560    8.9835942    -15595731            0    -15590936   -58111.866 
    2570    8.9969853    -15595739            0    -15590938   -58111.171 
    2580     9.007825    -15595745            0    -15590937   -58110.399 
    2590    9.0180137    -15595752            0    -15590939   -58109.703 
    2600    9.0235635    -15595765            0    -15590949   -58109.262 
    2610    9.0016336    -15595777            0    -15590973    -58108.93 
    2620    8.9885964    -15595792            0    -15590995   -58108.723 
    2630    8.9956425    -15595807            0    -15591006   -58108.472 
    2640     9.012095    -15595822            0    -15591012   -58108.184 
    2650    9.0212455    -15595835            0    -15591021   -58107.826 
    2660    9.0059366    -15595840            0    -15591034   -58107.298 
    2670    8.9905758    -15595846            0    -15591048   -58106.916 
    2680    9.0007806    -15595862            0    -15591059    -58106.92 
    2690    9.0201091    -15595883            0    -15591069   -58107.052 
    2700    8.9954389    -15595883            0    -15591082   -58106.556 
    2710    8.9589963    -15595872            0    -15591091   -58105.747 
    2720    8.9729051    -15595877            0    -15591088   -58105.467 
    2730    9.0161867    -15595896            0    -15591085    -58105.66 
    2740    9.0404861    -15595911            0    -15591086   -58105.654 
    2750    9.0304063    -15595916            0    -15591097   -58105.299 
    2760    9.0055607    -15595921            0    -15591115   -58104.904 
    2770    9.0009332    -15595934            0    -15591131   -58104.822 
    2780    9.0022695    -15595948            0    -15591143   -58104.739 
    2790    8.9927416    -15595953            0    -15591153   -58104.365 
    2800    8.9715279    -15595948            0    -15591160   -58103.641 
    2810     8.973128    -15595948            0    -15591159   -58103.066 
    2820    9.0253744    -15595965            0    -15591148    -58103.08 
    2830    9.0908584    -15595985            0    -15591133   -58103.241 
    2840    9.1079545    -15595994            0    -15591133   -58103.124 
    2850     9.044353    -15595993            0    -15591166   -58102.817 
    2860    8.9988965    -15595994            0    -15591192   -58102.598 
    2870    9.0002715    -15596006            0    -15591203   -58102.729 
    2880    8.9981379    -15596014            0    -15591212   -58102.787 
    2890    8.9916096    -15596018            0    -15591219   -58102.779 
    2900    9.0054789    -15596032            0    -15591226   -58103.062 
    2910    9.0184587    -15596047            0    -15591234   -58103.404 
    2920    9.0057722    -15596056            0    -15591249   -58103.531 
    2930    8.9850272    -15596062            0    -15591267   -58103.605 
    2940    8.9862088    -15596074            0    -15591278     -58103.9 
    2950    8.9921444    -15596084            0    -15591285   -58104.181 
    2960    8.9969706    -15596090            0    -15591289   -58104.441 
    2970    8.9938109    -15596092            0    -15591292   -58104.625 
    2980    8.9767794    -15596089            0    -15591299   -58104.713 
    2990    8.9673346    -15596092            0    -15591306   -58105.018 
    3000    8.9777664    -15596100            0    -15591309   -58105.497 
    3010    8.9962962    -15596106            0    -15591305   -58105.904 
    3020    9.0308735    -15596117            0    -15591298   -58106.471 
    3030    9.0567619    -15596131            0    -15591298   -58107.103 
    3040    9.0279618    -15596131            0    -15591312   -58107.368 
    3050    8.9714296    -15596122            0    -15591334   -58107.426 
    3060    8.9521538    -15596121            0    -15591343   -58107.721 
    3070    8.9928329    -15596139            0    -15591340   -58108.619 
    3080     9.032627    -15596154            0    -15591334   -58109.469 
    3090    9.0223472    -15596150            0    -15591335   -58109.761 
    3100    8.9890467    -15596142            0    -15591345   -58110.025 
    3110     8.970294    -15596152            0    -15591365   -58110.944 
    3120    8.9675241    -15596173            0    -15591387   -58112.258 
    3130    8.9613688    -15596182            0    -15591400   -58113.162 
    3140    8.9480711    -15596176            0    -15591401   -58113.483 
    3150    8.9691853    -15596174            0    -15591387   -58113.858 
    3160    9.0147976    -15596176            0    -15591365   -58114.399 
    3170    9.0306653    -15596174            0    -15591355   -58114.873 
    3180    9.0236246    -15596171            0    -15591356   -58115.337 
    3190    9.0051367    -15596166            0    -15591360   -58115.692 
    3200    8.9803096    -15596156            0    -15591364   -58115.885 
    3210    8.9771583    -15596153            0    -15591362   -58116.268 
    3220    9.0047161    -15596158            0    -15591353   -58116.948 
    3230    9.0264425    -15596157            0    -15591340   -58117.406 
    3240    9.0268504    -15596143            0    -15591326   -58117.507 
    3250    9.0499229    -15596141            0    -15591311    -58117.99 
    3260      9.09075    -15596152            0    -15591301   -58118.991 
    3270    9.0850635    -15596162            0    -15591313   -58120.021 
    3280    9.0226641    -15596164            0    -15591349   -58120.905 
    3290    8.9975531    -15596169            0    -15591367   -58121.776 
    3300    8.9886146    -15596172            0    -15591375    -58122.59 
    3310    8.9727639    -15596168            0    -15591379   -58123.126 
    3320    8.9657976    -15596160            0    -15591375   -58123.508 
    3330    8.9801514    -15596153            0    -15591361   -58123.829 
    3340    9.0077842    -15596148            0    -15591341   -58124.168 
    3350     9.020212    -15596141            0    -15591327   -58124.532 
    3360    9.0253541    -15596138            0    -15591321   -58125.179 
    3370    9.0344181    -15596144            0    -15591322   -58126.224 
    3380    9.0300944    -15596152            0    -15591333   -58127.385 
    3390    9.0062435    -15596159            0    -15591353   -58128.554 
    3400    8.9885569    -15596169            0    -15591372   -58129.754 
    3410    8.9876962    -15596175            0    -15591379   -58130.775 
    3420    8.9907121    -15596177            0    -15591379     -58131.6 
    3430    8.9980469    -15596178            0    -15591376    -58132.43 
    3440    9.0138922    -15596184            0    -15591374   -58133.418 
    3450    9.0153515    -15596185            0    -15591374   -58134.277 
    3460    9.0079112    -15596186            0    -15591378   -58135.115 
    3470    9.0020523    -15596193            0    -15591389   -58136.128 
    3480    8.9829708    -15596202            0    -15591408   -58137.117 
    3490    8.9506494    -15596203            0    -15591426   -58137.793 
    3500    8.9400649    -15596203            0    -15591432   -58138.311 
    3510    8.9519744    -15596198            0    -15591420   -58138.575 
    3520    8.9714334    -15596182            0    -15591394   -58138.415 
    3530    8.9860994    -15596172            0    -15591376   -58138.426 
    3540    8.9994938    -15596171            0    -15591368   -58138.803 
    3550    9.0071019    -15596169            0    -15591362   -58139.229 
    3560    9.0114196    -15596168            0    -15591358   -58139.698 
    3570    9.0251104    -15596173            0    -15591357   -58140.381 
    3580    9.0158239    -15596173            0    -15591362   -58140.824 
    3590    8.9746263    -15596162            0    -15591372   -58140.909 
    3600    8.9491921    -15596156            0    -15591380   -58141.208 
    3610     8.974121    -15596165            0    -15591376   -58142.026 
    3620    9.0195534    -15596172            0    -15591359   -58142.799 
    3630     9.057624    -15596174            0    -15591340   -58143.441 
    3640    9.0842109    -15596184            0    -15591336   -58144.393 
    3650    9.0542963    -15596186            0    -15591354   -58145.181 
    3660    8.9844185    -15596174            0    -15591379   -58145.552 
    3670    8.9599972    -15596167            0    -15591385   -58146.019 
    3680    8.9834048    -15596174            0    -15591380   -58146.882 
    3690    9.0068862    -15596179            0    -15591372   -58147.578 
    3700    9.0076801    -15596172            0    -15591364   -58147.877 
    3710    9.0085447    -15596165            0    -15591357   -58148.175 
    3720    9.0194881    -15596164            0    -15591351   -58148.661 
    3730    9.0342501    -15596167            0    -15591345   -58149.319 
    3740    9.0414988    -15596172            0    -15591347   -58150.141 
    3750    9.0266821    -15596181            0    -15591364   -58151.182 
    3760    8.9976499    -15596193            0    -15591391   -58152.307 
    3770    8.9799814    -15596199            0    -15591406   -58153.179 
    3780    8.9767096    -15596202            0    -15591412   -58153.832 
    3790    8.9712415    -15596197            0    -15591409   -58154.135 
    3800    8.9826989    -15596192            0    -15591398   -58154.428 
    3810    9.0152281    -15596192            0    -15591381   -58154.888 
    3820    9.0368578    -15596191            0    -15591368   -58155.327 
    3830    9.0366975    -15596187            0    -15591365   -58155.757 
    3840    9.0157281    -15596182            0    -15591370   -58156.167 
    3850    8.9766001    -15596173            0    -15591383    -58156.53 
    3860    8.9381981    -15596171            0    -15591401   -58157.175 
    3870    8.9261847    -15596190            0    -15591426   -58158.476 
    3880    8.9532019    -15596218            0    -15591439   -58159.947 
    3890    8.9686299    -15596227            0    -15591441   -58160.643 
    3900    8.9708165    -15596219            0    -15591431   -58160.611 
    3910    9.0194646    -15596220            0    -15591407   -58160.784 
    3920    9.0650208    -15596227            0    -15591389   -58161.093 
    3930    9.0579042    -15596224            0    -15591390    -58161.15 
    3940    9.0245586    -15596218            0    -15591402   -58161.065 
    3950     8.987109    -15596209            0    -15591413   -58160.885 
    3960    8.9732673    -15596205            0    -15591416   -58160.925 
    3970    8.9860312    -15596208            0    -15591412   -58161.257 
    3980    8.9927317    -15596204            0    -15591405   -58161.403 
    3990    9.0030271    -15596201            0    -15591396   -58161.513 
    4000     9.024383    -15596203            0    -15591387   -58161.759 
    4010    9.0388051    -15596206            0    -15591382   -58161.973 
    4020    9.0369254    -15596210            0    -15591387   -58162.216 
    4030    9.0084283    -15596222            0    -15591414   -58162.781 
    4040    8.9782056    -15596231            0    -15591440   -58163.263 
    4050    8.9635657    -15596234            0    -15591450   -58163.448 
    4060    8.9714152    -15596238            0    -15591450   -58163.582 
    4070    8.9867833    -15596237            0    -15591441   -58163.495 
    4080    8.9951864    -15596226            0    -15591426   -58163.062 
    4090    9.0081607    -15596217            0    -15591409   -58162.667 
    4100    9.0279827    -15596215            0    -15591397   -58162.605 
    4110    9.0387379    -15596217            0    -15591393   -58162.763 
    4120    9.0407181    -15596224            0    -15591399   -58163.154 
    4130    9.0234449    -15596233            0    -15591417   -58163.661 
    4140    9.0004348    -15596243            0    -15591440   -58164.261 
    4150    9.0134883    -15596260            0    -15591450   -58165.069 
    4160    9.0241574    -15596271            0    -15591455   -58165.715 
    4170     9.005057    -15596269            0    -15591463   -58166.005 
    4180     9.006088    -15596277            0    -15591471   -58166.687 
    4190     9.020372    -15596295            0    -15591481   -58167.651 
    4200    8.9939921    -15596297            0    -15591497   -58168.087 
    4210    8.9574096    -15596290            0    -15591509   -58168.278 
    4220    8.9781055    -15596303            0    -15591511   -58169.099 
    4230    9.0286703    -15596325            0    -15591507   -58170.181 
    4240    9.0255701    -15596323            0    -15591506   -58170.378 
    4250    8.9684998    -15596301            0    -15591515   -58169.851 
    4260     8.947163    -15596298            0    -15591523   -58169.809 
    4270    8.9787442    -15596312            0    -15591520    -58170.24 
    4280    9.0139682    -15596318            0    -15591508   -58170.487 
    4290    9.0369451    -15596319            0    -15591496   -58170.582 
    4300    9.0423553    -15596319            0    -15591493   -58170.656 
    4310    9.0162767    -15596313            0    -15591501   -58170.584 
    4320    8.9692615    -15596303            0    -15591517   -58170.467 
    4330    8.9353754    -15596297            0    -15591528   -58170.488 
    4340    8.9526109    -15596302            0    -15591525   -58170.887 
    4350    9.0283918    -15596320            0    -15591501   -58171.588 
    4360    9.0846503    -15596330            0    -15591481   -58172.045 
    4370    9.0697452    -15596325            0    -15591485    -58172.08 
    4380    9.0225285    -15596315            0    -15591500   -58171.992 
    4390    9.0124489    -15596321            0    -15591511   -58172.405 
    4400    9.0303384    -15596338            0    -15591518   -58173.171 
    4410    9.0287151    -15596347            0    -15591529   -58173.677 
    4420    9.0104163    -15596351            0    -15591543   -58173.951 
    4430    8.9893129    -15596352            0    -15591555   -58174.077 
    4440    8.9624897    -15596344            0    -15591561   -58173.879 
    4450    8.9528583    -15596335            0    -15591557   -58173.591 
    4460    8.9795668    -15596332            0    -15591540   -58173.454 
    4470    9.0134551    -15596332            0    -15591521   -58173.355 
    4480    9.0221832    -15596330            0    -15591515   -58173.268 
    4490    9.0297413    -15596335            0    -15591516   -58173.475 
    4500    9.0298965    -15596342            0    -15591523    -58173.79 
    4510     9.007234    -15596342            0    -15591535   -58173.915 
    4520    8.9895419    -15596345            0    -15591548    -58174.12 
    4530    8.9791911    -15596348            0    -15591556    -58174.36 
    4540    8.9911871    -15596357            0    -15591558   -58174.862 
    4550    9.0271961    -15596376            0    -15591559   -58175.701 
    4560    9.0291276    -15596388            0    -15591569   -58176.249 
    4570    8.9561517    -15596379            0    -15591599   -58176.133 
    4580    8.9211876    -15596374            0    -15591613   -58176.106 
    4590    8.9738698    -15596395            0    -15591606   -58176.829 
    4600    9.0332176    -15596414            0    -15591593   -58177.445 
    4610    9.0240307    -15596404            0    -15591588   -58177.118 
    4620    8.9961027    -15596390            0    -15591589   -58176.615 
    4630    9.0030717    -15596395            0    -15591590   -58176.695 
    4640    9.0315365    -15596412            0    -15591592   -58177.218 
    4650    9.0210159    -15596422            0    -15591608   -58177.551 
    4660    8.9655168    -15596417            0    -15591632   -58177.397 
    4670    8.9311682    -15596409            0    -15591643   -58177.046 
    4680    8.9585173    -15596416            0    -15591635   -58177.059 
    4690    9.0150237    -15596428            0    -15591617   -58177.213 
    4700     9.045187    -15596433            0    -15591606   -58177.162 
    4710    9.0329351    -15596427            0    -15591607   -58176.844 
    4720    9.0079331    -15596423            0    -15591615   -58176.613 
    4730    8.9984827    -15596429            0    -15591627   -58176.784 
    4740    8.9913705    -15596440            0    -15591641   -58177.134 
    4750    8.9725127    -15596450            0    -15591661   -58177.519 
    4760    8.9399522    -15596458            0    -15591687   -58177.875 
    4770    8.9323878    -15596470            0    -15591703   -58178.265 
    4780    8.9596767    -15596484            0    -15591702   -58178.587 
    4790    9.0199783    -15596495            0    -15591681   -58178.735 
    4800    9.0975541    -15596501            0    -15591646   -58178.607 
    4810    9.0928968    -15596495            0    -15591642   -58178.178 
    4820    9.0523918    -15596488            0    -15591657   -58177.792 
    4830     9.018209    -15596486            0    -15591674   -58177.595 
    4840     8.981439    -15596479            0    -15591686   -58177.249 
    4850    8.9726052    -15596479            0    -15591691   -58177.166 
    4860    8.9955734    -15596489            0    -15591688   -58177.418 
    4870    9.0163183    -15596494            0    -15591682    -58177.52 
    4880    9.0232478    -15596494            0    -15591678   -58177.367 
    4890    9.0139336    -15596489            0    -15591678   -58177.041 
    4900    8.9997331    -15596486            0    -15591683   -58176.845 
    4910    9.0000471    -15596496            0    -15591693   -58177.099 
    4920    9.0044816    -15596513            0    -15591707   -58177.578 
    4930    8.9983891    -15596526            0    -15591724   -58177.925 
    4940     8.985591    -15596534            0    -15591739   -58178.009 
    4950    8.9692279    -15596535            0    -15591748   -58177.765 
    4960    8.9691167    -15596535            0    -15591748   -58177.491 
    4970    9.0041583    -15596544            0    -15591739   -58177.511 
    4980    9.0573106    -15596558            0    -15591724   -58177.639 
    4990    9.0726042    -15596554            0    -15591713   -58177.244 
    5000    9.0337783    -15596536            0    -15591715   -58176.404 
    5010    8.9774861    -15596523            0    -15591732   -58175.849 
    5020    8.9720244    -15596536            0    -15591748   -58176.178 
    5030    9.0044253    -15596564            0    -15591758   -58176.908 
    5040    9.0086927    -15596576            0    -15591769   -58177.172 
    5050    8.9856014    -15596577            0    -15591782   -58177.067 
    5060    8.9812695    -15596586            0    -15591793   -58177.201 
    5070    8.9900575    -15596600            0    -15591802   -58177.446 
    5080    8.9786573    -15596605            0    -15591813   -58177.406 
    5090    8.9496279    -15596607            0    -15591830   -58177.281 
    5100    8.9357291    -15596614            0    -15591845   -58177.349 
    5110     8.958999    -15596627            0    -15591846   -58177.582 
    5120    8.9998643    -15596636            0    -15591833   -58177.602 
    5130    9.0388633    -15596638            0    -15591814   -58177.363 
    5140    9.0627867    -15596641            0    -15591804    -58177.17 
    5150    9.0544275    -15596642            0    -15591810    -58176.99 
    5160    9.0065003    -15596639            0    -15591832   -58176.697 
    5170    8.9759466    -15596643            0    -15591853   -58176.546 
    5180    8.9885664    -15596655            0    -15591858   -58176.544 
    5190     9.006733    -15596664            0    -15591857   -58176.473 
    5200    9.0169345    -15596671            0    -15591858   -58176.326 
    5210    9.0112215    -15596672            0    -15591863   -58176.048 
    5220    8.9919621    -15596670            0    -15591871   -58175.659 
    5230    8.9743488    -15596669            0    -15591879    -58175.29 
    5240    8.9624771    -15596667            0    -15591884   -58174.881 
    5250    8.9660201    -15596664            0    -15591879   -58174.381 
    5260    9.0062471    -15596665            0    -15591858   -58173.924 
    5270    9.0569858    -15596671            0    -15591837   -58173.687 
    5280    9.0778556    -15596679            0    -15591834   -58173.618 
    5290    9.0509808    -15596681            0    -15591850   -58173.469 
    5300    9.0197013    -15596686            0    -15591873   -58173.524 
    5310      9.03401    -15596709            0    -15591888   -58174.104 
    5320    9.0471437    -15596730            0    -15591902   -58174.626 
    5330    9.0111631    -15596728            0    -15591919   -58174.376 
    5340    8.9549165    -15596710            0    -15591931   -58173.554 
    5350    8.9544803    -15596709            0    -15591930   -58173.198 
    5360    9.0046781    -15596723            0    -15591917    -58173.36 
    5370    9.0469383    -15596734            0    -15591906   -58173.482 
    5380    9.0631361    -15596742            0    -15591906   -58173.578 
    5390    9.0286172    -15596742            0    -15591923   -58173.424 
    5400    8.9726404    -15596737            0    -15591949   -58173.134 
    5410    8.9595358    -15596737            0    -15591956   -58172.922 
    5420    8.9893609    -15596749            0    -15591952   -58173.072 
    5430    9.0314545    -15596767            0    -15591947   -58173.459 
    5440     9.043413    -15596776            0    -15591950   -58173.636 
    5450    9.0292826    -15596783            0    -15591965   -58173.757 
    5460    9.0136306    -15596796            0    -15591985    -58174.04 
    5470    9.0067715    -15596808            0    -15592001   -58174.249 
    5480    8.9821513    -15596804            0    -15592010   -58173.882 
    5490    8.9769595    -15596802            0    -15592011   -58173.583 
    5500     9.004046    -15596811            0    -15592006   -58173.647 
    5510    9.0159722    -15596814            0    -15592002   -58173.479 
    5520    8.9949002    -15596800            0    -15592000    -58172.87 
    5530    8.9954989    -15596796            0    -15591995   -58172.527 
    5540     9.034306    -15596800            0    -15591979   -58172.468 
    5550    9.0634531    -15596798            0    -15591961   -58172.203 
    5560    9.0626589    -15596794            0    -15591957   -58171.902 
    5570    9.0319755    -15596790            0    -15591970   -58171.677 
    5580    8.9953399    -15596793            0    -15591993   -58171.667 
    5590    8.9842623    -15596802            0    -15592008   -58171.792 
    5600    8.9923286    -15596812            0    -15592013   -58171.904 
    5610    9.0143081    -15596825            0    -15592015   -58172.126 
    5620    9.0152997    -15596830            0    -15592019   -58172.075 
    5630    8.9991203    -15596828            0    -15592026   -58171.875 
    5640    9.0021549    -15596838            0    -15592034   -58172.117 
    5650    9.0031709    -15596853            0    -15592048    -58172.63 
    5660    8.9647858    -15596864            0    -15592080   -58173.064 
    5670    8.9318502    -15596866            0    -15592099   -58173.071 
    5680    8.9211826    -15596856            0    -15592095   -58172.559 
    5690    8.9414062    -15596849            0    -15592077    -58172.04 
    5700    8.9933562    -15596857            0    -15592057   -58171.955 
    5710    9.0288196    -15596865            0    -15592046   -58171.847 
    5720    9.0461646    -15596872            0    -15592044   -58171.765 
    5730    9.0368461    -15596877            0    -15592054   -58171.693 
    5740    9.0014078    -15596877            0    -15592073   -58171.558 
    5750     8.990848    -15596887            0    -15592088   -58171.723 
    5760    9.0006747    -15596900            0    -15592097   -58171.925 
    5770    8.9860134    -15596897            0    -15592102   -58171.514 
    5780    8.9607935    -15596884            0    -15592101   -58170.689 
    5790    8.9800771    -15596884            0    -15592092   -58170.273 
    5800    9.0265055    -15596894            0    -15592077   -58170.189 
    5810    9.0442687    -15596897            0    -15592070   -58169.947 
    5820     9.045038    -15596902            0    -15592075   -58169.809 
    5830    9.0336686    -15596904            0    -15592083   -58169.615 
    5840    9.0125385    -15596900            0    -15592090   -58169.269 
    5850    9.0142222    -15596908            0    -15592097   -58169.326 
    5860    9.0132766    -15596917            0    -15592107   -58169.413 
    5870     8.983548    -15596913            0    -15592119   -58169.071 
    5880    8.9648391    -15596912            0    -15592127   -58168.763 
    5890    8.9897659    -15596925            0    -15592127   -58168.958 
    5900    9.0341782    -15596944            0    -15592122   -58169.419 
    5910    9.0429453    -15596950            0    -15592124   -58169.562 
    5920     8.996025    -15596943            0    -15592142    -58169.35 
    5930    8.9472235    -15596939            0    -15592164   -58169.222 
    5940    8.9559741    -15596950            0    -15592170     -58169.5 
    5950    9.0012583    -15596969            0    -15592165   -58169.946 
    5960    9.0123613    -15596967            0    -15592157   -58169.689 
    5970    8.9986219    -15596951            0    -15592148    -58168.91 
    5980    9.0188507    -15596944            0    -15592131   -58168.317 
    5990    9.0685331    -15596946            0    -15592107   -58167.959 
    6000    9.0981245    -15596954            0    -15592098   -58167.865 
    6010    9.0918868    -15596968            0    -15592116   -58168.108 
    6020    9.0574563    -15596977            0    -15592143   -58168.278 
    6030    9.0144931    -15596969            0    -15592158   -58167.895 
    6040    8.9967518    -15596970            0    -15592169   -58167.762 
    6050    9.0027153    -15596982            0    -15592178    -58167.96 
    6060     9.000451    -15596990            0    -15592186   -58168.092 
    6070    9.0031653    -15597001            0    -15592196   -58168.393 
    6080    8.9995215    -15597010            0    -15592207   -58168.674 
    6090    8.9765448    -15597009            0    -15592219   -58168.639 
    6100    8.9699473    -15597012            0    -15592225   -58168.668 
    6110    8.9967978    -15597026            0    -15592225   -58168.968 
    6120    9.0275974    -15597039            0    -15592221   -58169.196 
    6130    9.0348959    -15597044            0    -15592223   -58169.165 
    6140    8.9946213    -15597036            0    -15592236    -58168.74 
    6150    8.9371047    -15597021            0    -15592252   -58168.122 
    6160    8.9392591    -15597023            0    -15592252   -58168.004 
    6170    8.9998609    -15597039            0    -15592236   -58168.272 
    6180    9.0433167    -15597045            0    -15592219   -58168.167 
    6190    9.0427786    -15597040            0    -15592214   -58167.706 
    6200    9.0197646    -15597034            0    -15592220   -58167.257 
    6210    8.9957567    -15597032            0    -15592231   -58167.054 
    6220    8.9763292    -15597035            0    -15592244   -58167.091 
    6230    8.9725674    -15597048            0    -15592260   -58167.577 
    6240    8.9646738    -15597071            0    -15592287   -58168.475 
    6250    8.9549727    -15597091            0    -15592312   -58169.218 
    6260    8.9643261    -15597102            0    -15592318   -58169.464 
    6270    8.9732386    -15597103            0    -15592314   -58169.142 
    6280    8.9571209    -15597083            0    -15592303   -58168.031 
    6290    8.9558057    -15597064            0    -15592284   -58166.858 
    6300    8.9950782    -15597068            0    -15592268   -58166.483 
    6310    9.0379728    -15597084            0    -15592261   -58166.602 
    6320    9.0396275    -15597089            0    -15592264   -58166.444 
    6330    9.0031081    -15597081            0    -15592276   -58166.008 
    6340    8.9950594    -15597089            0    -15592288   -58166.154 
    6350    9.0162167    -15597111            0    -15592299   -58166.812 
    6360    9.0097776    -15597121            0    -15592313   -58167.115 
    6370    8.9682486    -15597114            0    -15592328    -58166.78 
    6380    8.9424558    -15597105            0    -15592332   -58166.286 
    6390     8.960641    -15597105            0    -15592322   -58165.995 
    6400    8.9986575    -15597110            0    -15592308   -58165.856 
    6410    9.0327329    -15597123            0    -15592302   -58166.021 
    6420    9.0513648    -15597137            0    -15592306   -58166.315 
    6430    9.0385528    -15597144            0    -15592320   -58166.463 
    6440    9.0086748    -15597147            0    -15592339   -58166.515 
    6450    8.9819514    -15597148            0    -15592354   -58166.448 
    6460    8.9590236    -15597142            0    -15592361   -58166.112 
    6470    8.9708869    -15597143            0    -15592356   -58165.951 
    6480    9.0066487    -15597149            0    -15592342   -58165.907 
    6490    9.0381651    -15597152            0    -15592328   -58165.851 
    6500    9.0645067    -15597161            0    -15592323   -58166.065 
    6510     9.041829    -15597162            0    -15592336   -58166.099 
    6520    8.9630767    -15597152            0    -15592369   -58165.864 
    6530    8.9418567    -15597153            0    -15592381   -58165.826 
    6540    8.9721056    -15597164            0    -15592376   -58165.977 
    6550    8.9994093    -15597169            0    -15592366   -58165.846 
    6560    9.0049613    -15597163            0    -15592357   -58165.298 
    6570    9.0016936    -15597153            0    -15592349   -58164.647 
    6580    9.0082773    -15597148            0    -15592340   -58164.235 
    6590    9.0425263    -15597157            0    -15592331   -58164.368 
    6600    9.0688761    -15597170            0    -15592330   -58164.669 
    6610    9.0262605    -15597170            0    -15592353   -58164.643 
    6620    8.9750364    -15597172            0    -15592382    -58164.73 
    6630    8.9800816    -15597184            0    -15592391   -58165.071 
    6640    9.0063352    -15597199            0    -15592392    -58165.53 
    6650    9.0361305    -15597217            0    -15592395   -58166.094 
    6660     9.030084    -15597226            0    -15592407   -58166.368 
    6670    8.9798232    -15597219            0    -15592426   -58166.158 
    6680    8.9381633    -15597207            0    -15592437   -58165.774 
    6690    8.9391283    -15597202            0    -15592431   -58165.498 
    6700    8.9925604    -15597213            0    -15592414   -58165.649 
    6710    9.0275558    -15597222            0    -15592404   -58165.678 
    6720    9.0125604    -15597214            0    -15592404   -58165.202 
    6730    9.0060833    -15597213            0    -15592406   -58164.989 
    6740    9.0226966    -15597225            0    -15592410   -58165.285 
    6750    9.0264237    -15597236            0    -15592419   -58165.631 
    6760    9.0058137    -15597243            0    -15592437   -58165.849 
    6770    8.9740657    -15597244            0    -15592454   -58165.841 
    6780    8.9617327    -15597244            0    -15592461   -58165.718 
    6790    8.9792579    -15597249            0    -15592457   -58165.711 
    6800    9.0075469    -15597259            0    -15592452   -58165.794 
    6810    8.9965278    -15597251            0    -15592450   -58165.318 
    6820    8.9772603    -15597238            0    -15592447   -58164.685 
    6830    9.0100711    -15597249            0    -15592440   -58164.806 
    6840    9.0383392    -15597260            0    -15592436   -58164.977 
    6850    9.0148457    -15597253            0    -15592441   -58164.624 
    6860    8.9856895    -15597250            0    -15592455   -58164.521 
    6870    8.9644289    -15597260            0    -15592476   -58164.942 
    6880     8.946582    -15597273            0    -15592499   -58165.471 
    6890    8.9445623    -15597281            0    -15592508   -58165.717 
    6900    8.9586637    -15597282            0    -15592501   -58165.619 
    6910    9.0083058    -15597287            0    -15592480   -58165.554 
    6920    9.0383083    -15597283            0    -15592460   -58165.181 
    6930    9.0154354    -15597266            0    -15592455   -58164.472 
    6940    9.0024298    -15597260            0    -15592456   -58164.088 
    6950    9.0042967    -15597262            0    -15592456   -58163.954 
    6960    8.9984281    -15597260            0    -15592457   -58163.744 
    6970     9.003392    -15597263            0    -15592458   -58163.776 
    6980    9.0228357    -15597275            0    -15592459   -58164.149 
    6990    9.0014529    -15597272            0    -15592468   -58164.081 
    7000    8.9533465    -15597260            0    -15592482   -58163.706 
    7010    8.9437187    -15597262            0    -15592489   -58163.719 
    7020    8.9914673    -15597280            0    -15592481   -58164.204 
    7030    9.0494307    -15597294            0    -15592464   -58164.501 
    7040    9.0549168    -15597286            0    -15592454   -58164.075 
    7050     9.014619    -15597266            0    -15592456   -58163.257 
    7060    8.9791997    -15597256            0    -15592464   -58162.795 
    7070    8.9935238    -15597275            0    -15592476   -58163.273 
    7080    9.0167983    -15597304            0    -15592492   -58164.079 
    7090    8.9891994    -15597313            0    -15592515   -58164.214 
    7100    8.9568012    -15597309            0    -15592529   -58163.907 
    7110    8.9744194    -15597319            0    -15592530    -58163.94 
    7120    9.0141702    -15597334            0    -15592524   -58164.129 
    7130    9.0214993    -15597335            0    -15592520   -58163.873 
    7140    9.0032075    -15597327            0    -15592522   -58163.395 
    7150     8.979472    -15597318            0    -15592526   -58163.008 
    7160    8.9665915    -15597315            0    -15592530   -58162.838 
    7170    8.9957961    -15597326            0    -15592526   -58163.115 
    7180    9.0330033    -15597338            0    -15592518   -58163.401 
    7190    9.0302553    -15597335            0    -15592516   -58163.262 
    7200    9.0067345    -15597328            0    -15592521   -58163.123 
    7210    9.0140389    -15597342            0    -15592531   -58163.714 
    7220    9.0256919    -15597364            0    -15592547   -58164.587 
    7230    8.9892462    -15597366            0    -15592569   -58164.761 
    7240    8.9502053    -15597357            0    -15592580   -58164.498 
    7250    8.9575892    -15597357            0    -15592577   -58164.499 
    7260    8.9931767    -15597364            0    -15592565   -58164.667 
    7270    9.0101333    -15597362            0    -15592554   -58164.511 
    7280    8.9976503    -15597350            0    -15592548   -58163.959 
    7290    8.9974662    -15597345            0    -15592543   -58163.642 
    7300    9.0300503    -15597360            0    -15592541   -58163.962 
    7310    9.0449594    -15597372            0    -15592545   -58164.261 
    7320    9.0067972    -15597361            0    -15592554   -58163.905 
    7330    8.9796625    -15597352            0    -15592560   -58163.653 
    7340    9.0098136    -15597367            0    -15592559   -58164.232 
    7350    9.0504171    -15597391            0    -15592561   -58165.101 
    7360    9.0301711    -15597392            0    -15592573   -58165.273 
    7370    8.9782597    -15597380            0    -15592589   -58164.964 
    7380    8.9681598    -15597380            0    -15592594   -58164.967 
    7390    8.9815365    -15597384            0    -15592591   -58165.079 
    7400    8.9920951    -15597384            0    -15592585   -58165.082 
    7410    9.0110151    -15597388            0    -15592579   -58165.262 
    7420    9.0204112    -15597392            0    -15592578   -58165.395 
    7430    9.0008778    -15597384            0    -15592581   -58165.136 
    7440    8.9837724    -15597377            0    -15592583   -58164.846 
    7450    8.9802994    -15597372            0    -15592580   -58164.644 
    7460    8.9904076    -15597369            0    -15592571    -58164.54 
    7470    9.0340588    -15597380            0    -15592559   -58164.871 
    7480    9.0800522    -15597393            0    -15592547   -58165.219 
    7490    9.0732131    -15597386            0    -15592544   -58164.878 
    7500    8.9962054    -15597362            0    -15592561   -58164.038 
    7510    8.9507709    -15597356            0    -15592579   -58163.803 
    7520    8.9686982    -15597370            0    -15592583   -58164.236 
    7530    8.9956628    -15597380            0    -15592579   -58164.565 
    7540    9.0111867    -15597381            0    -15592572   -58164.602 
    7550    9.0247188    -15597381            0    -15592565   -58164.619 
    7560    9.0457494    -15597390            0    -15592563    -58164.88 
    7570     9.040685    -15597399            0    -15592574   -58165.092 
    7580    8.9895214    -15597397            0    -15592599   -58165.002 
    7590    8.9665511    -15597400            0    -15592615    -58165.09 
    7600      9.00163    -15597422            0    -15592618   -58165.734 
    7610    9.0483997    -15597450            0    -15592621   -58166.549 
    7620    9.0488969    -15597463            0    -15592634   -58166.908 
    7630    9.0037332    -15597459            0    -15592654   -58166.723 
    7640    8.9722768    -15597452            0    -15592664   -58166.449 
    7650    8.9657805    -15597448            0    -15592663   -58166.264 
    7660    8.9725832    -15597443            0    -15592654   -58166.079 
    7670    8.9903253    -15597439            0    -15592641   -58165.921 
    7680    9.0170285    -15597440            0    -15592628   -58165.914 
    7690    9.0281332    -15597440            0    -15592622   -58165.851 
    7700    9.0135948    -15597433            0    -15592623   -58165.585 
    7710    8.9901537    -15597425            0    -15592627   -58165.258 
    7720    8.9777098    -15597420            0    -15592629   -58165.039 
    7730    8.9952391    -15597424            0    -15592624   -58165.027 
    7740    9.0418226    -15597432            0    -15592606   -58165.022 
    7750    9.0625849    -15597430            0    -15592593   -58164.719 
    7760    9.0424174    -15597421            0    -15592595   -58164.276 
    7770    9.0191724    -15597423            0    -15592610   -58164.253 
    7780    9.0079483    -15597436            0    -15592629   -58164.657 
    7790    9.0053616    -15597452            0    -15592646   -58165.142 
    7800    9.0016448    -15597461            0    -15592657   -58165.486 
    7810    9.0013074    -15597469            0    -15592665   -58165.804 
    7820    9.0148647    -15597482            0    -15592671   -58166.286 
    7830    9.0058683    -15597486            0    -15592680   -58166.397 
    7840     8.958898    -15597469            0    -15592688   -58165.825 
    7850    8.9483859    -15597461            0    -15592686   -58165.488 
    7860    9.0135144    -15597471            0    -15592661   -58165.612 
    7870     9.075374    -15597474            0    -15592630   -58165.491 
    7880    9.0628938    -15597466            0    -15592629   -58165.159 
    7890    9.0158572    -15597451            0    -15592640   -58164.669 
    7900    8.9634568    -15597433            0    -15592650   -58164.083 
    7910    8.9619958    -15597432            0    -15592649   -58164.005 
    7920    9.0069115    -15597446            0    -15592639   -58164.358 
    7930    9.0426045    -15597454            0    -15592628   -58164.558 
    7940    9.0558509    -15597458            0    -15592625   -58164.695 
    7950    9.0340894    -15597462            0    -15592640   -58164.844 
    7960    8.9773673    -15597463            0    -15592672   -58164.962 
    7970    8.9733315    -15597475            0    -15592686   -58165.312 
    7980    9.0088164    -15597495            0    -15592687   -58165.947 
    7990    9.0263578    -15597507            0    -15592690   -58166.348 
    8000    9.0037079    -15597503            0    -15592698   -58166.267 
    8010     8.983292    -15597503            0    -15592708    -58166.27 
    8020    8.9886669    -15597514            0    -15592717   -58166.628 
    8030    8.9897229    -15597523            0    -15592725   -58166.915 
    8040     8.962918    -15597521            0    -15592738   -58166.862 
    8050    8.9394315    -15597520            0    -15592750   -58166.832 
    8060    8.9513522    -15597527            0    -15592750   -58166.984 
    8070    8.9930192    -15597533            0    -15592733   -58167.038 
    8080    9.0292981    -15597531            0    -15592712   -58166.765 
    8090    9.0212932    -15597515            0    -15592701   -58166.056 
    8100    8.9948023    -15597496            0    -15592696   -58165.266 
    8110    9.0004339    -15597494            0    -15592691   -58165.049 
    8120    9.0250084    -15597500            0    -15592684   -58165.227 
    8130    9.0386431    -15597504            0    -15592680   -58165.424 
    8140     9.021118    -15597501            0    -15592687    -58165.51 
    8150    8.9828523    -15597502            0    -15592708   -58165.763 
    8160    8.9627401    -15597509            0    -15592726   -58166.201 
    8170    8.9759672    -15597523            0    -15592733   -58166.768 
    8180    9.0199492    -15597547            0    -15592733   -58167.593 
    8190    9.0354375    -15597560            0    -15592738   -58168.059 
    8200    8.9935262    -15597555            0    -15592755   -58167.929 
    8210    8.9524546    -15597551            0    -15592774   -58167.845 
    8220    8.9544433    -15597558            0    -15592780   -58168.051 
    8230    8.9845073    -15597568            0    -15592773   -58168.285 
    8240    9.0043733    -15597563            0    -15592757   -58167.962 
    8250    9.0219355    -15597546            0    -15592731   -58167.152 
    8260    9.0433791    -15597535            0    -15592709   -58166.521 
    8270    9.0425018    -15597531            0    -15592705   -58166.258 
    8280    9.0260819    -15597528            0    -15592711   -58166.214 
    8290    9.0243406    -15597536            0    -15592720   -58166.715 
    8300    9.0383139    -15597556            0    -15592732   -58167.722 
    8310    9.0300842    -15597570            0    -15592751    -58168.52 
    8320    8.9949363    -15597569            0    -15592768   -58168.704 
    8330    8.9751839    -15597567            0    -15592777   -58168.723 
    8340     8.977582    -15597568            0    -15592777   -58168.768 
    8350    8.9901347    -15597568            0    -15592770   -58168.743 
    8360    9.0024057    -15597565            0    -15592760   -58168.556 
    8370    9.0117243    -15597557            0    -15592748   -58168.221 
    8380    9.0323665    -15597554            0    -15592733   -58167.988 
    8390    9.0539715    -15597549            0    -15592717   -58167.739 
    8400    9.0700536    -15597543            0    -15592702   -58167.454 
    8410    9.0728174    -15597537            0    -15592695   -58167.266 
    8420    9.0368923    -15597529            0    -15592706   -58167.116 
    8430    8.9836605    -15597526            0    -15592732   -58167.191 
    8440    8.9862247    -15597543            0    -15592747   -58167.893 
    8450    9.0175215    -15597568            0    -15592755   -58168.821 
    8460    9.0080209    -15597572            0    -15592765   -58169.109 
    8470    8.9726938    -15597564            0    -15592775   -58168.929 
    8480    8.9562738    -15597558            0    -15592778   -58168.766 
    8490    8.9769034    -15597559            0    -15592768   -58168.724 
    8500     9.033713    -15597562            0    -15592741   -58168.676 
    8510    9.0717726    -15597564            0    -15592722   -58168.526 
    8520    9.0654952    -15597563            0    -15592724   -58168.375 
    8530    9.0345618    -15597558            0    -15592737   -58168.159 
    8540    9.0023245    -15597552            0    -15592748   -58167.912 
    8550    8.9840163    -15597549            0    -15592754   -58167.769 
    8560    8.9818972    -15597549            0    -15592755   -58167.732 
    8570    8.9933294    -15597551            0    -15592751    -58167.74 
    8580     9.011888    -15597552            0    -15592743   -58167.726 
    8590    9.0362878    -15597555            0    -15592732    -58167.73 
    8600    9.0616593    -15597561            0    -15592724    -58167.79 
    8610    9.0452374    -15597557            0    -15592730   -58167.574 
    8620    8.9932983    -15597553            0    -15592754   -58167.401 
    8630    8.9916641    -15597573            0    -15592774   -58167.972 
    8640    9.0115876    -15597595            0    -15592786   -58168.637 
    8650    9.0022758    -15597601            0    -15592796   -58168.787 
    8660    8.9974383    -15597607            0    -15592805    -58168.93 
    8670    8.9962454    -15597614            0    -15592813   -58169.018 
    8680    8.9797095    -15597611            0    -15592819   -58168.775 
    8690    8.9804429    -15597614            0    -15592822   -58168.686 
    8700    8.9958311    -15597619            0    -15592819   -58168.671 
    8710    9.0124677    -15597618            0    -15592808   -58168.446 
    8720    9.0268231    -15597612            0    -15592794   -58168.081 
    8730    9.0276044    -15597603            0    -15592785     -58167.6 
    8740     9.007623    -15597588            0    -15592781    -58166.93 
    8750    8.9871386    -15597574            0    -15592778   -58166.299 
    8760    9.0030644    -15597574            0    -15592770   -58166.141 
    8770    9.0526606    -15597589            0    -15592758   -58166.437 
    8780    9.0644173    -15597592            0    -15592755   -58166.403 
    8790    9.0073885    -15597578            0    -15592771   -58165.872 
    8800    8.9503268    -15597570            0    -15592793   -58165.624 
    8810    8.9598635    -15597583            0    -15592801   -58166.036 
    8820    8.9986031    -15597600            0    -15592798   -58166.558 
    8830    9.0233697    -15597609            0    -15592793   -58166.745 
    8840    9.0267712    -15597611            0    -15592793   -58166.697 
    8850    9.0136749    -15597616            0    -15592806   -58166.806 
    8860    8.9674514    -15597623            0    -15592837   -58167.035 
    8870    8.9440339    -15597627            0    -15592854   -58167.114 
    8880    8.9490103    -15597628            0    -15592852   -58167.003 
    8890    8.9759453    -15597628            0    -15592837    -58166.82 
    8900    8.9995241    -15597622            0    -15592819   -58166.497 
    8910    9.0011454    -15597610            0    -15592806   -58166.093 
    8920     9.035646    -15597621            0    -15592799   -58166.528 
    8930    9.0742119    -15597645            0    -15592802   -58167.439 
    8940    9.0542752    -15597652            0    -15592820   -58167.864 
    8950    9.0122499    -15597649            0    -15592839   -58167.862 
    8960    8.9980481    -15597650            0    -15592848   -58167.922 
    8970    9.0100194    -15597661            0    -15592853   -58168.239 
    8980      9.01116    -15597668            0    -15592859   -58168.377 
    8990    8.9940221    -15597667            0    -15592867   -58168.258 
    9000    8.9737683    -15597665            0    -15592875   -58168.061 
    9010    8.9683707    -15597664            0    -15592878   -58167.958 
    9020    8.9944943    -15597671            0    -15592871   -58168.081 
    9030    9.0364077    -15597676            0    -15592854    -58168.11 
    9040    9.0553451    -15597671            0    -15592838   -58167.771 
    9050     9.037017    -15597657            0    -15592834   -58167.178 
    9060    9.0081144    -15597647            0    -15592840   -58166.785 
    9070    8.9851041    -15597648            0    -15592853   -58166.841 
    9080    8.9654616    -15597655            0    -15592870    -58167.18 
    9090    8.9543294    -15597662            0    -15592883   -58167.548 
    9100    8.9609958    -15597669            0    -15592887   -58167.866 
    9110    8.9979971    -15597681            0    -15592879   -58168.235 
    9120    9.0446617    -15597686            0    -15592859    -58168.33 
    9130    9.0616402    -15597679            0    -15592843   -58168.031 
    9140    9.0431018    -15597668            0    -15592841   -58167.636 
    9150    9.0035531    -15597657            0    -15592852    -58167.39 
    9160    8.9771382    -15597663            0    -15592872   -58167.712 
    9170    8.9774383    -15597682            0    -15592891   -58168.466 
    9180    8.9719292    -15597692            0    -15592903   -58168.834 
    9190    8.9496507    -15597683            0    -15592907   -58168.507 
    9200      8.95143    -15597672            0    -15592895   -58167.988 
    9210    9.0054536    -15597671            0    -15592865   -58167.638 
    9220    9.0434535    -15597675            0    -15592848   -58167.533 
    9230    9.0544145    -15597683            0    -15592851   -58167.621 
    9240    9.0210963    -15597679            0    -15592864   -58167.322 
    9250    8.9618776    -15597662            0    -15592879    -58166.71 
    9260     8.957081    -15597664            0    -15592884   -58166.731 
    9270    9.0050105    -15597683            0    -15592877    -58167.31 
    9280    9.0279749    -15597687            0    -15592869   -58167.421 
    9290    9.0124259    -15597675            0    -15592866   -58167.007 
    9300    9.0164847    -15597676            0    -15592864   -58166.972 
    9310    9.0200507    -15597681            0    -15592868   -58167.085 
    9320    8.9892917    -15597677            0    -15592879   -58166.967 
    9330    8.9711285    -15597682            0    -15592895   -58167.194 
    9340    8.9876571    -15597702            0    -15592905   -58167.838 
    9350    8.9964657    -15597716            0    -15592914   -58168.231 
    9360    8.9703397    -15597711            0    -15592924    -58167.99 
    9370     8.944041    -15597702            0    -15592929   -58167.527 
    9380    8.9620994    -15597701            0    -15592918   -58167.235 
    9390    9.0246819    -15597705            0    -15592889   -58167.059 
    9400    9.0505233    -15597703            0    -15592873   -58166.733 
    9410    9.0383366    -15597698            0    -15592874   -58166.325 
    9420    9.0139105    -15597694            0    -15592883   -58166.008 
    9430    8.9892127    -15597692            0    -15592895   -58165.799 
    9440    8.9867742    -15597699            0    -15592903   -58165.903 
    9450    8.9965749    -15597710            0    -15592908   -58166.157 
    9460    9.0060513    -15597721            0    -15592914   -58166.439 
    9470    8.9797937    -15597724            0    -15592931   -58166.454 
    9480    8.9350833    -15597724            0    -15592956   -58166.371 
    9490    8.9462221    -15597738            0    -15592964    -58166.66 
    9500     8.991772    -15597756            0    -15592958   -58167.046 
    9510     9.008026    -15597754            0    -15592946    -58166.75 
    9520    8.9913801    -15597730            0    -15592932   -58165.759 
    9530    8.9935637    -15597710            0    -15592910   -58164.809 
    9540    9.0175086    -15597701            0    -15592889   -58164.321 
    9550     9.029717    -15597701            0    -15592882   -58164.222 
    9560    9.0259628    -15597701            0    -15592884   -58164.205 
    9570    9.0179509    -15597704            0    -15592891   -58164.271 
    9580    9.0113847    -15597710            0    -15592901   -58164.483 
    9590    9.0056606    -15597719            0    -15592913   -58164.823 
    9600    9.0150827    -15597737            0    -15592926   -58165.483 
    9610    9.0199943    -15597755            0    -15592942   -58166.139 
    9620    9.0023214    -15597762            0    -15592957   -58166.351 
    9630    8.9725389    -15597753            0    -15592965   -58166.014 
    9640    8.9502126    -15597739            0    -15592962    -58165.43 
    9650     8.966353    -15597736            0    -15592951   -58165.192 
    9660    9.0214932    -15597752            0    -15592938   -58165.531 
    9670      9.05046    -15597762            0    -15592932   -58165.742 
    9680    9.0311162    -15597759            0    -15592939   -58165.566 
    9690    8.9907799    -15597752            0    -15592953    -58165.29 
    9700    8.9607494    -15597746            0    -15592964   -58165.072 
    9710    8.9613791    -15597746            0    -15592964   -58165.003 
    9720    8.9991681    -15597754            0    -15592951   -58165.148 
    9730    9.0631429    -15597764            0    -15592928   -58165.335 
    9740    9.0952884    -15597760            0    -15592906   -58165.042 
    9750    9.0577749    -15597736            0    -15592902   -58164.234 
    9760     8.997739    -15597725            0    -15592923   -58163.983 
    9770    8.9640328    -15597739            0    -15592956   -58164.629 
    9780     8.963689    -15597750            0    -15592967    -58165.07 
    9790    8.9726951    -15597754            0    -15592965   -58165.167 
    9800     9.012773    -15597766            0    -15592957    -58165.47 
    9810    9.0471769    -15597778            0    -15592950   -58165.687 
    9820    9.0348113    -15597776            0    -15592955   -58165.454 
    9830    8.9871546    -15597769            0    -15592973   -58165.089 
    9840     8.953905    -15597771            0    -15592992    -58165.08 
    9850    8.9691369    -15597787            0    -15593000   -58165.545 
    9860    9.0095871    -15597808            0    -15593000   -58166.176 
    9870    9.0198802    -15597814            0    -15593000   -58166.321 
    9880    8.9720676    -15597799            0    -15593011   -58165.829 
    9890    8.9337756    -15597793            0    -15593025   -58165.691 
    9900    8.9687209    -15597813            0    -15593027   -58166.376 
    9910    9.0278663    -15597837            0    -15593019   -58167.108 
    9920    9.0328612    -15597836            0    -15593015   -58166.976 
    9930    8.9967024    -15597820            0    -15593019    -58166.35 
    9940    8.9773204    -15597815            0    -15593024   -58166.071 
    9950    8.9743688    -15597813            0    -15593024   -58165.998 
    9960      8.98073    -15597807            0    -15593014    -58165.82 
    9970    9.0151366    -15597805            0    -15592994   -58165.704 
    9980    9.0341207    -15597797            0    -15592976   -58165.366 
    9990    9.0137225    -15597780            0    -15592969   -58164.667 
   10000    8.9943133    -15597766            0    -15592966   -58164.115 
   10010    9.0103422    -15597770            0    -15592962   -58164.174 
   10020    9.0382701    -15597781            0    -15592957   -58164.519 
   10030    9.0455434    -15597788            0    -15592961   -58164.842 
   10040    9.0142746    -15597795            0    -15592985   -58165.227 
   10050    8.9841371    -15597805            0    -15593010   -58165.661 
   10060    8.9768298    -15597812            0    -15593022   -58165.982 
   10070    8.9768624    -15597816            0    -15593025   -58166.093 
   10080    8.9844719    -15597816            0    -15593021   -58166.068 
   10090    9.0009677    -15597815            0    -15593012    -58165.98 
   10100    9.0160758    -15597810            0    -15592999   -58165.763 
   10110    9.0190149    -15597799            0    -15592985   -58165.367 
   10120    9.0320716    -15597793            0    -15592973   -58165.181 
   10130     9.051617    -15597795            0    -15592964   -58165.208 
   10140    9.0397797    -15597790            0    -15592966   -58165.045 
   10150    9.0010158    -15597788            0    -15592984   -58165.093 
   10160    8.9839424    -15597803            0    -15593009   -58165.787 
   10170    9.0022712    -15597828            0    -15593024   -58166.734 
   10180    9.0030157    -15597839            0    -15593034   -58167.143 
   10190    8.9681524    -15597828            0    -15593042   -58166.747 
   10200    8.9536269    -15597819            0    -15593041   -58166.281 
   10210    8.9799514    -15597819            0    -15593026   -58166.004 
   10220    9.0314616    -15597824            0    -15593004   -58165.934 
   10230    9.0462217    -15597822            0    -15592994   -58165.777 
   10240    9.0114465    -15597805            0    -15592996    -58165.31 
   10250    8.9964812    -15597800            0    -15592999   -58165.237 
   10260    9.0145813    -15597811            0    -15593000   -58165.666 
   10270    9.0192964    -15597818            0    -15593004   -58165.954 
   10280    9.0057129    -15597818            0    -15593012   -58166.067 
   10290    9.0057002    -15597828            0    -15593022   -58166.474 
   10300    8.9948372    -15597837            0    -15593037   -58166.838 
   10310    8.9600293    -15597840            0    -15593058   -58166.979 
   10320    8.9407303    -15597847            0    -15593076   -58167.263 
   10330    8.9479957    -15597859            0    -15593084   -58167.613 
   10340    8.9686564    -15597863            0    -15593077   -58167.682 
   10350    9.0240362    -15597863            0    -15593047   -58167.522 
   10360    9.0516936    -15597858            0    -15593027   -58167.202 
   10370    9.0359943    -15597847            0    -15593024   -58166.721 
   10380    9.0014848    -15597834            0    -15593030   -58166.226 
   10390    8.9812565    -15597831            0    -15593037   -58166.072 
   10400    9.0068494    -15597848            0    -15593042   -58166.673 
   10410    9.0320508    -15597870            0    -15593049   -58167.451 
   10420    8.9972938    -15597872            0    -15593071   -58167.685 
   10430    8.9542257    -15597870            0    -15593091    -58167.73 
   10440     8.963554    -15597880            0    -15593096   -58168.072 
   10450    8.9947035    -15597892            0    -15593091    -58168.46 
   10460    9.0119951    -15597895            0    -15593085   -58168.584 
   10470    9.0130347    -15597893            0    -15593083   -58168.522 
   10480    9.0056855    -15597889            0    -15593083   -58168.406 
   10490    8.9902518    -15597882            0    -15593084   -58168.186 
   10500    8.9729323    -15597874            0    -15593085   -58167.862 
   10510     8.990385    -15597876            0    -15593078   -58167.786 
   10520    9.0322456    -15597886            0    -15593066   -58167.905 
   10530    9.0352261    -15597882            0    -15593060   -58167.596 
   10540    8.9974066    -15597863            0    -15593061   -58166.923 
   10550    8.9887018    -15597860            0    -15593063   -58166.807 
   10560    9.0195818    -15597875            0    -15593061    -58167.32 
   10570    9.0264767    -15597882            0    -15593065   -58167.594 
   10580    8.9836297    -15597871            0    -15593077   -58167.313 
   10590    8.9361418    -15597857            0    -15593088   -58166.929 
   10600    8.9444423    -15597858            0    -15593085   -58166.986 
   10610    9.0065337    -15597870            0    -15593063   -58167.301 
   10620    9.0581388    -15597877            0    -15593043   -58167.496 
   10630     9.048741    -15597871            0    -15593042   -58167.259 
   10640     9.021151    -15597866            0    -15593051   -58167.027 
   10650    9.0163346    -15597874            0    -15593062   -58167.226 
   10660    9.0174253    -15597884            0    -15593072   -58167.512 
   10670    9.0043062    -15597886            0    -15593081   -58167.509 
   10680    8.9947955    -15597886            0    -15593086   -58167.425 
   10690    8.9919824    -15597887            0    -15593088   -58167.317 
   10700    8.9907728    -15597885            0    -15593087   -58167.128 
   10710    8.9911924    -15597882            0    -15593083   -58166.855 
   10720    9.0036994    -15597883            0    -15593078   -58166.665 
   10730     9.028317    -15597890            0    -15593072    -58166.64 
   10740    9.0303404    -15597890            0    -15593071   -58166.398 
   10750    8.9941027    -15597881            0    -15593081   -58165.992 
   10760    8.9591906    -15597880            0    -15593099    -58165.97 
   10770    8.9585838    -15597889            0    -15593108   -58166.286 
   10780    8.9728474    -15597894            0    -15593106   -58166.455 
   10790    8.9974039    -15597896            0    -15593095   -58166.439 
   10800     9.024756    -15597897            0    -15593080   -58166.349 
   10810    9.0453868    -15597899            0    -15593072   -58166.321 
   10820    9.0329917    -15597894            0    -15593073   -58166.109 
   10830    8.9916135    -15597885            0    -15593086   -58165.848 
   10840    8.9569727    -15597884            0    -15593104   -58165.983 
   10850    8.9601262    -15597898            0    -15593116   -58166.638 
   10860    8.9855099    -15597917            0    -15593122   -58167.406 
   10870    8.9986732    -15597929            0    -15593127   -58167.897 
   10880    9.0057468    -15597944            0    -15593138   -58168.469 
   10890    9.0081941    -15597963            0    -15593156   -58169.251 
   10900    8.9894013    -15597973            0    -15593176   -58169.703 
   10910    8.9463176    -15597962            0    -15593188   -58169.377 
   10920    8.9122862    -15597940            0    -15593184   -58168.579 
   10930    8.9470841    -15597935            0    -15593160   -58168.234 
   10940    9.0063818    -15597946            0    -15593139    -58168.47 
   10950    9.0304511    -15597951            0    -15593132   -58168.643 
   10960    9.0250566    -15597949            0    -15593133   -58168.638 
   10970    9.0068973    -15597947            0    -15593140   -58168.645 
   10980    8.9760105    -15597940            0    -15593150   -58168.531 
   10990    8.9587333    -15597936            0    -15593155   -58168.482 
   11000    8.9782256    -15597939            0    -15593148   -58168.661 
   11010    9.0157297    -15597940            0    -15593129   -58168.696 
   11020    9.0441658    -15597936            0    -15593109   -58168.521 
   11030     9.049662    -15597931            0    -15593101   -58168.369 
   11040    9.0286724    -15597925            0    -15593107   -58168.181 
   11050    8.9867297    -15597915            0    -15593119   -58167.877 
   11060    8.9621837    -15597912            0    -15593129   -58167.813 
   11070    8.9791537    -15597926            0    -15593134   -58168.261 
   11080    9.0006314    -15597939            0    -15593135   -58168.716 
   11090    9.0055904    -15597943            0    -15593137   -58168.905 
   11100     8.997406    -15597942            0    -15593141   -58168.875 
   11110      8.99244    -15597943            0    -15593144   -58168.808 
   11120     9.004844    -15597951            0    -15593146   -58168.905 
   11130    9.0089561    -15597956            0    -15593148    -58168.87 
   11140    8.9768248    -15597944            0    -15593153    -58168.34 
   11150    8.9665594    -15597938            0    -15593152    -58168.07 
   11160    9.0132701    -15597952            0    -15593142   -58168.475 
   11170    9.0581811    -15597964            0    -15593130    -58168.84 
   11180    9.0582433    -15597965            0    -15593130   -58168.835 
   11190    8.9990169    -15597952            0    -15593149   -58168.408 
   11200    8.9355034    -15597938            0    -15593169   -58167.949 
   11210    8.9510977    -15597948            0    -15593171   -58168.185 
   11220    9.0152481    -15597973            0    -15593162   -58168.881 
   11230    9.0383208    -15597980            0    -15593157   -58169.056 
   11240    9.0009816    -15597964            0    -15593160   -58168.487 
   11250    8.9658341    -15597948            0    -15593163   -58167.912 
   11260    8.9813552    -15597950            0    -15593157   -58167.902 
   11270     9.019564    -15597954            0    -15593141   -58167.974 
   11280    9.0915644    -15597955            0    -15593103   -58167.908 
   11290    9.1258383    -15597955            0    -15593085   -58167.906 
   11300    9.0877352    -15597948            0    -15593098   -58167.827 
   11310    9.0248625    -15597935            0    -15593118   -58167.579 
   11320    8.9857957    -15597928            0    -15593133   -58167.524 
   11330    8.9902462    -15597938            0    -15593140    -58167.94 
   11340    9.0207073    -15597959            0    -15593144    -58168.68 
   11350    9.0297801    -15597974            0    -15593155   -58169.208 
   11360    8.9944408    -15597973            0    -15593173   -58169.219 
   11370    8.9568008    -15597967            0    -15593187   -58169.053 
   11380    8.9706424    -15597977            0    -15593189   -58169.359 
   11390     9.016928    -15597996            0    -15593183   -58169.993 
   11400    9.0272853    -15597998            0    -15593180   -58170.093 
   11410    8.9769658    -15597974            0    -15593183   -58169.334 
   11420    8.9378203    -15597952            0    -15593182   -58168.634 
   11430    9.0089347    -15597971            0    -15593163   -58169.079 
   11440    9.0734264    -15597986            0    -15593144   -58169.459 
   11450    9.0537558    -15597976            0    -15593144   -58169.115 
   11460    9.0075565    -15597966            0    -15593159   -58168.815 
   11470    8.9791164    -15597966            0    -15593174   -58168.856 
   11480    8.9826969    -15597977            0    -15593183   -58169.172 
   11490    9.0023274    -15597991            0    -15593186    -58169.57 
   11500    9.0181309    -15598004            0    -15593191   -58169.943 
   11510    9.0054252    -15598011            0    -15593205   -58170.179 
   11520     8.953902    -15598009            0    -15593231   -58170.186 
   11530     8.928104    -15598010            0    -15593245   -58170.201 
   11540    8.9517435    -15598017            0    -15593240    -58170.35 
   11550    8.9966891    -15598026            0    -15593225   -58170.496 
   11560    8.9912398    -15598013            0    -15593215   -58169.937 
   11570    8.9683374    -15597994            0    -15593208   -58169.209 
   11580    8.9912229    -15597997            0    -15593199   -58169.216 
   11590    9.0227848    -15598007            0    -15593191   -58169.454 
   11600    9.0211232    -15598004            0    -15593190   -58169.332 
   11610    9.0064561    -15598000            0    -15593194   -58169.139 
   11620    8.9991086    -15598003            0    -15593201   -58169.184 
   11630    8.9937132    -15598012            0    -15593212   -58169.468 
   11640    8.9785385    -15598025            0    -15593233   -58169.896 
   11650    8.9553625    -15598033            0    -15593254   -58170.146 
   11660    8.9391739    -15598032            0    -15593261   -58169.988 
   11670    8.9542225    -15598031            0    -15593252    -58169.77 
   11680    9.0101798    -15598041            0    -15593233   -58169.838 
   11690     9.037493    -15598045            0    -15593222   -58169.677 
   11700    9.0212758    -15598037            0    -15593223   -58169.147 
   11710    9.0089402    -15598035            0    -15593227   -58168.821 
   11720    9.0238729    -15598048            0    -15593232   -58169.075 
   11730    9.0218722    -15598057            0    -15593242    -58169.27 
   11740    8.9775953    -15598047            0    -15593256   -58168.891 
   11750    8.9521646    -15598041            0    -15593263   -58168.557 
   11760    8.9769173    -15598049            0    -15593258   -58168.603 
   11770      9.01868    -15598054            0    -15593241   -58168.533 
   11780     9.057311    -15598050            0    -15593216   -58168.158 
   11790    9.0723607    -15598042            0    -15593200   -58167.715 
   11800    9.0630598    -15598039            0    -15593202   -58167.558 
   11810    9.0237845    -15598045            0    -15593230   -58167.889 
   11820    8.9806183    -15598055            0    -15593262   -58168.383 
   11830    8.9895888    -15598065            0    -15593268   -58168.816 
   11840    9.0119185    -15598078            0    -15593269   -58169.239 
   11850      9.01841    -15598085            0    -15593272   -58169.394 
   11860    8.9845631    -15598075            0    -15593280   -58168.972 
   11870    8.9596434    -15598066            0    -15593284   -58168.581 
   11880    8.9840077    -15598073            0    -15593278    -58168.66 
   11890    9.0232006    -15598080            0    -15593265   -58168.719 
   11900    9.0531179    -15598085            0    -15593254   -58168.683 
   11910    9.0602239    -15598090            0    -15593255   -58168.678 
   11920    9.0209283    -15598090            0    -15593275   -58168.618 
   11930    8.9776662    -15598092            0    -15593301   -58168.721 
   11940    8.9653791    -15598094            0    -15593310   -58168.749 
   11950    8.9661484    -15598092            0    -15593307   -58168.594 
   11960    8.9916656    -15598095            0    -15593297    -58168.59 
   11970    9.0069333    -15598093            0    -15593286   -58168.367 
   11980    8.9948502    -15598077            0    -15593277   -58167.787 
   11990    9.0035742    -15598072            0    -15593267   -58167.604 
   12000    9.0472423    -15598085            0    -15593257   -58168.114 
   12010    9.0719527    -15598099            0    -15593258   -58168.697 
   12020    9.0018674    -15598092            0    -15593288   -58168.698 
   12030    8.9185212    -15598075            0    -15593316   -58168.293 
   12040    8.9042665    -15598063            0    -15593311   -58167.886 
   12050    8.9394429    -15598059            0    -15593288   -58167.666 
   12060    8.9869104    -15598060            0    -15593263   -58167.604 
   12070    9.0241613    -15598064            0    -15593248   -58167.655 
   12080    9.0561073    -15598074            0    -15593241   -58167.927 
   12090    9.0638779    -15598087            0    -15593250   -58168.253 
   12100    9.0384412    -15598097            0    -15593273   -58168.492 
   12110    8.9970875    -15598097            0    -15593295   -58168.383 
   12120    8.9773229    -15598097            0    -15593306   -58168.264 
   12130    8.9769963    -15598099            0    -15593308   -58168.241 
   12140    9.0035519    -15598109            0    -15593304   -58168.491 
   12150    9.0262893    -15598116            0    -15593299   -58168.624 
   12160    8.9965719    -15598099            0    -15593298   -58167.957 
   12170    8.9630741    -15598079            0    -15593296   -58167.081 
   12180    8.9930816    -15598078            0    -15593279   -58166.697 
   12190    9.0506433    -15598085            0    -15593255   -58166.537 
   12200      9.06554    -15598086            0    -15593247   -58166.247 
   12210    9.0389692    -15598080            0    -15593256   -58165.882 
   12220    9.0079917    -15598081            0    -15593273   -58165.807 
   12230    8.9917592    -15598085            0    -15593287   -58165.962 
   12240    8.9891448    -15598090            0    -15593292   -58166.126 
   12250    8.9937004    -15598093            0    -15593293   -58166.225 
   12260    9.0081312    -15598099            0    -15593292   -58166.394 
   12270    9.0326925    -15598113            0    -15593293   -58166.767 
   12280    9.0467371    -15598129            0    -15593301   -58167.164 
   12290    9.0327062    -15598140            0    -15593319   -58167.345 
   12300    9.0073997    -15598141            0    -15593334   -58167.199 
   12310    8.9785595    -15598131            0    -15593339   -58166.641 
   12320    8.9468456    -15598111            0    -15593336   -58165.786 
   12330    8.9642046    -15598105            0    -15593321   -58165.389 
   12340    9.0208261    -15598116            0    -15593302    -58165.56 
   12350    9.0566556    -15598126            0    -15593293   -58165.788 
   12360    9.0636081    -15598136            0    -15593299    -58166.03 
   12370    9.0382741    -15598142            0    -15593319    -58166.19 
   12380    9.0067184    -15598145            0    -15593338   -58166.202 
   12390    8.9980737    -15598150            0    -15593348   -58166.246 
   12400    9.0061677    -15598159            0    -15593353   -58166.387 
   12410    9.0037641    -15598163            0    -15593358   -58166.307 
   12420    8.9855919    -15598158            0    -15593363   -58165.945 
   12430     8.979914    -15598157            0    -15593365   -58165.696 
   12440    9.0007505    -15598165            0    -15593361   -58165.718 
   12450    9.0235011    -15598167            0    -15593352   -58165.592 
   12460    9.0333114    -15598161            0    -15593340   -58165.181 
   12470    9.0388753    -15598156            0    -15593332   -58164.817 
   12480    9.0357141    -15598154            0    -15593332   -58164.571 
   12490     9.008151    -15598150            0    -15593342   -58164.286 
   12500    8.9807203    -15598152            0    -15593360    -58164.22 
   12510    8.9685512    -15598159            0    -15593373   -58164.286 
   12520    8.9670353    -15598164            0    -15593379   -58164.246 
   12530    8.9760132    -15598165            0    -15593375   -58164.056 
   12540    8.9948888    -15598157            0    -15593357   -58163.537 
   12550    9.0217153    -15598142            0    -15593328   -58162.741 
   12560    9.0362137    -15598135            0    -15593313   -58162.307 
   12570     9.046751    -15598140            0    -15593312   -58162.432 
   12580    9.0472349    -15598151            0    -15593322   -58162.854 
   12590    9.0315567    -15598160            0    -15593340   -58163.325 
   12600    9.0171258    -15598169            0    -15593356   -58163.785 
   12610    9.0248492    -15598185            0    -15593369   -58164.398 
   12620    9.0352321    -15598203            0    -15593381   -58164.972 
   12630    9.0174932    -15598208            0    -15593396   -58165.059 
   12640    8.9759491    -15598198            0    -15593408   -58164.575 
   12650    8.9698241    -15598198            0    -15593411   -58164.332 
   12660    9.0054146    -15598212            0    -15593406   -58164.538 
   12670    9.0268874    -15598219            0    -15593402   -58164.534 
   12680    9.0032268    -15598208            0    -15593403    -58163.96 
   12690    8.9824242    -15598201            0    -15593407   -58163.579 
   12700    8.9993458    -15598215            0    -15593412   -58163.919 
   12710    8.9995541    -15598223            0    -15593420    -58164.14 
   12720    8.9610335    -15598211            0    -15593429   -58163.795 
   12730    8.9615585    -15598211            0    -15593429   -58163.786 
   12740     8.998614    -15598220            0    -15593417   -58163.965 
   12750    9.0172473    -15598215            0    -15593402   -58163.677 
   12760    9.0070393    -15598196            0    -15593390   -58163.007 
   12770    9.0169412    -15598191            0    -15593378   -58162.765 
   12780    9.0635711    -15598208            0    -15593371   -58163.314 
   12790    9.0679844    -15598220            0    -15593381   -58163.774 
   12800    8.9980618    -15598217            0    -15593414   -58163.896 
   12810    8.9709839    -15598219            0    -15593431   -58164.168 
   12820    8.9852359    -15598227            0    -15593432   -58164.596 
   12830    8.9826753    -15598222            0    -15593428   -58164.549 
   12840    8.9657508    -15598203            0    -15593419   -58164.001 
   12850    8.9919385    -15598199            0    -15593400   -58163.791 
   12860    9.0198211    -15598196            0    -15593382   -58163.615 
   12870    9.0052899    -15598180            0    -15593374   -58163.012 
   12880    8.9942686    -15598168            0    -15593368    -58162.58 
   12890    9.0251925    -15598178            0    -15593362   -58162.888 
   12900    9.0503141    -15598192            0    -15593362   -58163.374 
   12910    9.0288877    -15598196            0    -15593378   -58163.693 
   12920    8.9702618    -15598197            0    -15593410   -58163.987 
   12930    8.9543673    -15598201            0    -15593422   -58164.298 
   12940    8.9949737    -15598220            0    -15593419   -58165.041 
   12950    9.0580664    -15598251            0    -15593417   -58166.149 
   12960    9.0549236    -15598260            0    -15593428   -58166.579 
   12970    8.9981165    -15598252            0    -15593449   -58166.442 
   12980     8.973989    -15598252            0    -15593463   -58166.523 
   12990    8.9796374    -15598257            0    -15593465   -58166.707 
   13000    8.9849618    -15598257            0    -15593462   -58166.613 
   13010     8.971761    -15598241            0    -15593453   -58165.981 
   13020    8.9668722    -15598222            0    -15593436    -58165.18 
   13030    8.9828054    -15598208            0    -15593415   -58164.593 
   13040    8.9888648    -15598199            0    -15593402   -58164.208 
   13050    9.0070048    -15598203            0    -15593396   -58164.247 
   13060    9.0450041    -15598221            0    -15593394   -58164.778 
   13070    9.0619023    -15598239            0    -15593403   -58165.354 
   13080    9.0291465    -15598244            0    -15593426   -58165.551 
   13090    8.9911575    -15598244            0    -15593445   -58165.468 
   13100    8.9739676    -15598242            0    -15593453    -58165.31 
   13110    8.9799234    -15598245            0    -15593452   -58165.272 
   13120    9.0039129    -15598251            0    -15593446   -58165.346 
   13130     9.019118    -15598252            0    -15593439    -58165.21 
   13140     9.005322    -15598239            0    -15593433   -58164.634 
   13150    9.0019975    -15598229            0    -15593425   -58164.121 
   13160    9.0116166    -15598217            0    -15593407   -58163.531 
   13170    9.0462826    -15598214            0    -15593386   -58163.245 
   13180    9.0883718    -15598228            0    -15593377   -58163.548 
   13190    9.0857637    -15598240            0    -15593392   -58163.864 
   13200    9.0252132    -15598235            0    -15593418   -58163.604 
   13210    8.9822354    -15598224            0    -15593431   -58163.132 
   13220    8.9784897    -15598225            0    -15593433   -58163.038 
   13230    9.0157003    -15598242            0    -15593430    -58163.56 
   13240    9.0490408    -15598260            0    -15593430   -58164.219 
   13250    9.0313718    -15598263            0    -15593444   -58164.504 
   13260    8.9912952    -15598264            0    -15593465   -58164.686 
   13270    8.9677744    -15598265            0    -15593479   -58164.822 
   13280    8.9640331    -15598265            0    -15593481   -58164.845 
   13290     8.990525    -15598271            0    -15593473   -58165.026 
   13300     9.018355    -15598277            0    -15593465   -58165.108 
   13310    9.0121249    -15598269            0    -15593460   -58164.733 
   13320    8.9999842    -15598260            0    -15593457   -58164.387 
   13330    9.0284361    -15598270            0    -15593452   -58164.723 
   13340    9.0664362    -15598284            0    -15593446   -58165.238 
   13350    9.0650862    -15598292            0    -15593454   -58165.578 
   13360    9.0121051    -15598289            0    -15593480   -58165.598 
   13370    8.9511941    -15598276            0    -15593499   -58165.253 
   13380    8.9362389    -15598270            0    -15593501   -58165.104 
   13390    8.9801295    -15598280            0    -15593487   -58165.409 
   13400    9.0376534    -15598293            0    -15593469   -58165.822 
   13410    9.0624674    -15598300            0    -15593463   -58166.038 
   13420    9.0250644    -15598289            0    -15593473   -58165.653 
   13430    8.9775366    -15598279            0    -15593488   -58165.235 
   13440    8.9705498    -15598284            0    -15593497   -58165.219 
   13450    8.9666549    -15598282            0    -15593497   -58164.944 
   13460    8.9825553    -15598280            0    -15593486   -58164.613 
   13470    9.0604645    -15598291            0    -15593456   -58164.688 
   13480    9.0916826    -15598289            0    -15593437   -58164.401 
   13490    9.0413903    -15598268            0    -15593443   -58163.608 
   13500    8.9992361    -15598255            0    -15593453   -58163.096 
   13510    8.9905002    -15598255            0    -15593457   -58163.037 
   13520    8.9963505    -15598259            0    -15593458   -58163.155 
   13530    9.0149005    -15598268            0    -15593457   -58163.459 
   13540    9.0296248    -15598279            0    -15593460   -58163.832 
   13550    9.0159412    -15598286            0    -15593474   -58164.125 
   13560    8.9703496    -15598288            0    -15593501   -58164.322 
   13570     8.947843    -15598291            0    -15593516   -58164.518 
   13580    8.9682843    -15598301            0    -15593515    -58164.85 
   13590    9.0019986    -15598312            0    -15593507   -58165.171 
   13600    9.0242697    -15598319            0    -15593503   -58165.316 
   13610     9.011004    -15598313            0    -15593504   -58165.003 
   13620    8.9818605    -15598301            0    -15593507    -58164.49 
   13630    8.9916748    -15598305            0    -15593506    -58164.55 
   13640    9.0254904    -15598317            0    -15593500   -58164.957 
   13650    9.0340745    -15598315            0    -15593494   -58164.922 
   13660     9.025979    -15598307            0    -15593490   -58164.601 
   13670    9.0111457    -15598299            0    -15593490   -58164.304 
   13680    9.0074191    -15598301            0    -15593494   -58164.351 
   13690    9.0177597    -15598313            0    -15593501   -58164.801 
   13700    9.0143736    -15598325            0    -15593514   -58165.233 
   13710    8.9601002    -15598312            0    -15593530   -58164.894 
   13720     8.931293    -15598301            0    -15593535   -58164.545 
   13730    8.9821262    -15598316            0    -15593522   -58164.879 
   13740    9.0433589    -15598330            0    -15593504   -58165.169 
   13750    9.0476113    -15598326            0    -15593498   -58164.894 
   13760    9.0092917    -15598311            0    -15593503   -58164.269 
   13770     8.984136    -15598304            0    -15593509   -58163.929 
   13780    9.0016045    -15598316            0    -15593512   -58164.215 
   13790    9.0193765    -15598328            0    -15593515   -58164.561 
   13800    8.9755057    -15598323            0    -15593533   -58164.407 
   13810    8.9017308    -15598314            0    -15593564   -58164.234 
   13820    8.9169544    -15598326            0    -15593567   -58164.599 
   13830    8.9846635    -15598344            0    -15593550   -58165.155 
   13840    9.0283859    -15598350            0    -15593532   -58165.291 
   13850    9.0315008    -15598345            0    -15593525   -58165.113 
   13860    9.0195597    -15598340            0    -15593527   -58165.032 
   13870    9.0148272    -15598345            0    -15593534   -58165.363 
   13880    9.0133105    -15598358            0    -15593548   -58166.035 
   13890    8.9752852    -15598359            0    -15593569   -58166.365 
   13900    8.9441237    -15598358            0    -15593584   -58166.509 
   13910    8.9576308    -15598364            0    -15593583   -58166.745 
   13920    8.9701589    -15598361            0    -15593574   -58166.574 
   13930    8.9631583    -15598347            0    -15593564   -58166.037 
   13940     8.971222    -15598342            0    -15593554   -58165.779 
   13950    9.0014261    -15598347            0    -15593544   -58165.881 
   13960     9.023544    -15598351            0    -15593535   -58165.954 
   13970    9.0140122    -15598343            0    -15593532   -58165.716 
   13980    8.9952659    -15598332            0    -15593532   -58165.441 
   13990    9.0030813    -15598335            0    -15593530   -58165.526 
   14000    9.0090436    -15598335            0    -15593527   -58165.498 
   14010    8.9908914    -15598322            0    -15593524   -58165.029 
   14020    9.0005176    -15598317            0    -15593514    -58164.83 
   14030      9.04999    -15598329            0    -15593500   -58165.151 
   14040    9.0651174    -15598333            0    -15593495   -58165.223 
   14050    9.0271246    -15598325            0    -15593507   -58164.975 
   14060    8.9943485    -15598329            0    -15593529   -58165.135 
   14070    8.9844216    -15598340            0    -15593545   -58165.481 
   14080    8.9848942    -15598346            0    -15593551   -58165.705 
   14090    8.9886467    -15598348            0    -15593551   -58165.811 
   14100    9.0011086    -15598352            0    -15593548   -58165.949 
   14110    9.0099011    -15598354            0    -15593545   -58165.997 
   14120    9.0073824    -15598351            0    -15593544   -58165.893 
   14130    9.0103802    -15598352            0    -15593544   -58165.912 
   14140    9.0042659    -15598352            0    -15593547   -58165.906 
   14150    8.9959908    -15598355            0    -15593554    -58166.02 
   14160    8.9902193    -15598361            0    -15593563   -58166.227 
   14170    8.9765529    -15598360            0    -15593569   -58166.272 
   14180    8.9889001    -15598368            0    -15593571   -58166.593 
   14190    9.0103382    -15598377            0    -15593568   -58166.958 
   14200    8.9951595    -15598367            0    -15593566   -58166.717 
   14210    8.9704346    -15598349            0    -15593561   -58166.175 
   14220    9.0014444    -15598349            0    -15593545   -58166.149 
   14230    9.0624483    -15598363            0    -15593526   -58166.516 
   14240    9.0528644    -15598354            0    -15593523   -58166.208 
   14250    8.9772873    -15598323            0    -15593532   -58165.218 
   14260    8.9557071    -15598317            0    -15593538   -58165.026 
   14270    8.9981843    -15598334            0    -15593532   -58165.539 
   14280    9.0524658    -15598343            0    -15593512   -58165.762 
   14290    9.0794147    -15598339            0    -15593493   -58165.502 
   14300     9.056088    -15598326            0    -15593493   -58164.986 
   14310     9.020076    -15598323            0    -15593509   -58164.867 
   14320     9.003557    -15598337            0    -15593532   -58165.387 
   14330    9.0069102    -15598353            0    -15593546   -58166.069 
   14340     9.006308    -15598361            0    -15593554   -58166.485 
   14350    8.9921612    -15598358            0    -15593559    -58166.54 
   14360    8.9817663    -15598354            0    -15593561   -58166.452 
   14370     8.974183    -15598346            0    -15593556   -58166.156 
   14380    8.9848155    -15598339            0    -15593544   -58165.869 
   14390    9.0353277    -15598346            0    -15593524   -58166.063 
   14400    9.0778681    -15598357            0    -15593513   -58166.495 
   14410    9.0643557    -15598358            0    -15593521   -58166.651 
   14420    9.0231196    -15598354            0    -15593538   -58166.629 
   14430    9.0013292    -15598351            0    -15593547   -58166.604 
   14440    9.0141375    -15598361            0    -15593550   -58167.011 
   14450    9.0482067    -15598385            0    -15593557   -58167.886 
   14460    9.0412004    -15598399            0    -15593574   -58168.449 
   14470    9.0037359    -15598402            0    -15593597   -58168.637 
   14480    8.9690699    -15598397            0    -15593610   -58168.566 
   14490    8.9399826    -15598383            0    -15593612   -58168.196 
   14500    8.9474254    -15598373            0    -15593598   -58167.896 
   14510    8.9990097    -15598378            0    -15593576   -58167.976 
   14520    9.0421402    -15598389            0    -15593563     -58168.2 
   14530    9.0374653    -15598388            0    -15593565   -58168.002 
   14540    8.9915272    -15598372            0    -15593573   -58167.322 
   14550     8.969006    -15598366            0    -15593579   -58166.925 
   14560     8.980368    -15598369            0    -15593577   -58166.847 
   14570    8.9991449    -15598368            0    -15593565    -58166.65 
   14580    9.0435372    -15598370            0    -15593544    -58166.59 
   14590    9.0898641    -15598377            0    -15593526   -58166.795 
   14600    9.0832025    -15598378            0    -15593530   -58166.965 
   14610    9.0290298    -15598377            0    -15593558   -58167.203 
   14620    9.0095673    -15598386            0    -15593578   -58167.727 
   14630    9.0263357    -15598402            0    -15593585   -58168.414 
   14640    9.0324176    -15598416            0    -15593596   -58168.953 
   14650     8.991782    -15598410            0    -15593612   -58168.815 
   14660    8.9498316    -15598399            0    -15593623   -58168.466 
   14670    8.9740499    -15598410            0    -15593621   -58168.817 
   14680    9.0290453    -15598430            0    -15593611   -58169.432 
   14690    9.0271975    -15598423            0    -15593605   -58169.176 
   14700    8.9765697    -15598395            0    -15593604   -58168.186 
   14710    8.9685871    -15598380            0    -15593594   -58167.568 
   14720     9.021348    -15598381            0    -15593567   -58167.422 
   14730    9.0403847    -15598374            0    -15593549   -58167.087 
   14740    9.0200006    -15598360            0    -15593546   -58166.649 
   14750    9.0125908    -15598358            0    -15593548   -58166.703 
   14760    9.0263989    -15598371            0    -15593554    -58167.34 
   14770    9.0334978    -15598390            0    -15593569   -58168.228 
   14780    8.9969045    -15598396            0    -15593594   -58168.724 
   14790     8.972689    -15598397            0    -15593608   -58168.959 
   14800    9.0047919    -15598415            0    -15593610   -58169.611 
   14810    9.0404921    -15598436            0    -15593611   -58170.274 
   14820    9.0258969    -15598439            0    -15593622   -58170.277 
   14830    8.9729766    -15598425            0    -15593636   -58169.675 
   14840    8.9349483    -15598410            0    -15593641   -58168.936 
   14850    8.9426101    -15598402            0    -15593630   -58168.324 
   14860    8.9825547    -15598399            0    -15593605   -58167.821 
   14870    9.0117788    -15598401            0    -15593592   -58167.537 
   14880     9.014307    -15598399            0    -15593589   -58167.196 
   14890    8.9949378    -15598389            0    -15593589   -58166.651 
   14900    8.9864887    -15598383            0    -15593587   -58166.296 
   14910    9.0135368    -15598392            0    -15593582   -58166.457 
   14920    9.0488546    -15598407            0    -15593578    -58166.84 
   14930    9.0426518    -15598412            0    -15593587   -58166.995 
   14940    8.9825321    -15598405            0    -15593611   -58166.879 
   14950    8.9443756    -15598402            0    -15593628   -58166.924 
   14960     8.965498    -15598412            0    -15593627    -58167.42 
   14970     9.003388    -15598424            0    -15593619   -58167.937 
   14980    9.0197653    -15598425            0    -15593612   -58168.086 
   14990    9.0148991    -15598421            0    -15593610   -58167.971 
   15000    9.0206192    -15598426            0    -15593611   -58168.117 
   15010    9.0200046    -15598437            0    -15593623   -58168.467 
   15020    8.9543852    -15598436            0    -15593657   -58168.486 
   15030    8.9160165    -15598432            0    -15593673   -58168.315 
   15040    8.9456788    -15598439            0    -15593665   -58168.446 
   15050    9.0110248    -15598457            0    -15593648   -58168.851 
   15060    9.0362656    -15598461            0    -15593638   -58168.797 
   15070    8.9959493    -15598439            0    -15593638   -58167.907 
   15080    8.9496844    -15598411            0    -15593635    -58166.84 
   15090    8.9766575    -15598409            0    -15593618   -58166.525 
   15100    9.0370492    -15598419            0    -15593596   -58166.597 
   15110    9.0557493    -15598422            0    -15593589   -58166.582 
   15120    9.0394531    -15598420            0    -15593596   -58166.471 
   15130    9.0124655    -15598416            0    -15593606   -58166.372 
   15140    8.9969192    -15598417            0    -15593615   -58166.477 
   15150    9.0026311    -15598426            0    -15593621   -58166.897 
   15160    9.0056434    -15598433            0    -15593627   -58167.313 
   15170    9.0019871    -15598439            0    -15593635   -58167.692 
   15180    9.0006077    -15598451            0    -15593648   -58168.211 
   15190    8.9736361    -15598459            0    -15593670   -58168.574 
   15200    8.9265847    -15598456            0    -15593692   -58168.499 
   15210    8.9208605    -15598454            0    -15593693    -58168.32 
   15220    8.9635256    -15598460            0    -15593676   -58168.256 
   15230     8.992711    -15598461            0    -15593662   -58168.009 
   15240    9.0046937    -15598461            0    -15593655   -58167.787 
   15250    9.0065556    -15598459            0    -15593652   -58167.542 
   15260    8.9948017    -15598451            0    -15593651   -58167.147 
   15270    9.0133507    -15598458            0    -15593648   -58167.212 
   15280    9.0271461    -15598464            0    -15593647   -58167.279 
   15290    8.9998297    -15598456            0    -15593653   -58166.928 
   15300     8.969972    -15598451            0    -15593664   -58166.749 
   15310     8.970106    -15598459            0    -15593672   -58167.087 
   15320    8.9830884    -15598469            0    -15593675   -58167.584 
   15330    9.0002115    -15598478            0    -15593674   -58168.063 
   15340    9.0148179    -15598482            0    -15593671   -58168.401 
   15350    9.0211142    -15598484            0    -15593670   -58168.547 
   15360    9.0072778    -15598481            0    -15593674     -58168.4 
   15370    8.9705782    -15598469            0    -15593682   -58167.918 
   15380    8.9483908    -15598460            0    -15593684   -58167.464 
   15390    8.9690064    -15598458            0    -15593671   -58167.221 
   15400    9.0282244    -15598466            0    -15593648   -58167.269 
   15410    9.0677097    -15598475            0    -15593636   -58167.417 
   15420    9.0505935    -15598472            0    -15593642   -58167.255 
   15430    9.0097788    -15598466            0    -15593658   -58167.075 
   15440    8.9881838    -15598467            0    -15593670   -58167.172 
   15450     9.002167    -15598479            0    -15593675    -58167.65 
   15460    9.0196986    -15598492            0    -15593678   -58168.111 
   15470    8.9980837    -15598486            0    -15593684   -58167.941 
   15480    8.9688209    -15598473            0    -15593687    -58167.52 
   15490    8.9740453    -15598471            0    -15593682   -58167.409 
   15500    9.0003592    -15598473            0    -15593670    -58167.44 
   15510    9.0185853    -15598470            0    -15593657   -58167.316 
   15520    9.0324111    -15598469            0    -15593648   -58167.248 
   15530     9.035941    -15598468            0    -15593645   -58167.193 
   15540    9.0073309    -15598461            0    -15593654   -58166.956 
   15550    8.9594365    -15598454            0    -15593672   -58166.701 
   15560    8.9486612    -15598457            0    -15593681    -58166.69 
   15570    8.9774684    -15598468            0    -15593677   -58166.897 
   15580    9.0255133    -15598483            0    -15593666   -58167.249 
   15590    9.0585684    -15598494            0    -15593660   -58167.601 
   15600    9.0509499    -15598498            0    -15593668   -58167.843 
   15610    9.0149488    -15598501            0    -15593690   -58168.118 
   15620    9.0014351    -15598513            0    -15593709    -58168.65 
   15630    8.9952723    -15598521            0    -15593721   -58168.947 
   15640    8.9725396    -15598515            0    -15593726   -58168.669 
   15650    8.9607951    -15598506            0    -15593724   -58168.237 
   15660    8.9837917    -15598505            0    -15593710   -58168.003 
   15670    9.0182644    -15598505            0    -15593692   -58167.759 
   15680    9.0251725    -15598497            0    -15593681   -58167.273 
   15690    9.0100064    -15598487            0    -15593678    -58166.73 
   15700    8.9981426    -15598480            0    -15593678   -58166.423 
   15710    9.0002802    -15598481            0    -15593678   -58166.435 
   15720    9.0126777    -15598487            0    -15593677   -58166.672 
   15730    9.0334224    -15598501            0    -15593680   -58167.117 
   15740    9.0369557    -15598513            0    -15593690   -58167.482 
   15750    9.0168066    -15598518            0    -15593706   -58167.687 
   15760    9.0026809    -15598524            0    -15593720   -58167.933 
   15770    8.9923095    -15598525            0    -15593726   -58167.985 
   15780    8.9573139    -15598506            0    -15593726   -58167.388 
   15790    8.9395497    -15598487            0    -15593716   -58166.702 
   15800    8.9912437    -15598495            0    -15593697   -58166.845 
   15810    9.0487287    -15598514            0    -15593685   -58167.335 
   15820    9.0493568    -15598516            0    -15593687   -58167.367 
   15830    9.0147254    -15598510            0    -15593699   -58167.162 
   15840     9.004195    -15598517            0    -15593712   -58167.423 
   15850    9.0092432    -15598530            0    -15593722    -58167.89 
   15860    8.9975668    -15598533            0    -15593731   -58168.019 
   15870    8.9800587    -15598528            0    -15593736   -58167.896 
   15880    8.9834577    -15598529            0    -15593735   -58167.884 
   15890    8.9946874    -15598531            0    -15593730   -58167.848 
   15900    8.9939945    -15598526            0    -15593726   -58167.602 
   15910    8.9956575    -15598524            0    -15593723   -58167.447 
   15920    9.0041172    -15598526            0    -15593720   -58167.486 
   15930    9.0006015    -15598523            0    -15593719   -58167.373 
   15940    8.9779695    -15598509            0    -15593718   -58166.862 
   15950    8.9745095    -15598499            0    -15593710   -58166.418 
   15960    9.0118891    -15598503            0    -15593694   -58166.405 
   15970     9.048701    -15598508            0    -15593679   -58166.502 
   15980    9.0492908    -15598505            0    -15593675   -58166.461 
   15990    9.0243018    -15598503            0    -15593687   -58166.576 
   16000    8.9861911    -15598520            0    -15593724   -58167.446 
   16010    8.9970069    -15598549            0    -15593747   -58168.625 
   16020    9.0088923    -15598562            0    -15593754   -58169.159 
   16030    8.9852556    -15598556            0    -15593760   -58168.927 
   16040     8.972321    -15598550            0    -15593762   -58168.644 
   16050    8.9844452    -15598551            0    -15593756   -58168.523 
   16060    9.0026948    -15598548            0    -15593743   -58168.329 
   16070    9.0319358    -15598549            0    -15593729   -58168.258 
   16080    9.0444305    -15598548            0    -15593721    -58168.07 
   16090    9.0129239    -15598534            0    -15593724   -58167.441 
   16100    8.9799352    -15598525            0    -15593733   -58167.011 
   16110    8.9609424    -15598528            0    -15593746   -58166.972 
   16120    8.9515859    -15598534            0    -15593756   -58167.073 
   16130    8.9817284    -15598552            0    -15593758   -58167.553 
   16140    9.0202943    -15598568            0    -15593754    -58167.95 
   16150     9.006359    -15598558            0    -15593752   -58167.503 
   16160    8.9756366    -15598539            0    -15593749   -58166.757 
   16170    8.9976031    -15598540            0    -15593738   -58166.599 
   16180    9.0406322    -15598546            0    -15593721   -58166.631 
   16190    9.0451359    -15598540            0    -15593713   -58166.287 
   16200    9.0217765    -15598530            0    -15593715   -58165.837 
   16210    8.9946537    -15598526            0    -15593726   -58165.668 
   16220     8.974274    -15598532            0    -15593742   -58165.942 
   16230    8.9733805    -15598549            0    -15593760   -58166.675 
   16240    8.9809103    -15598567            0    -15593774   -58167.476 
   16250    8.9749791    -15598575            0    -15593785   -58167.944 
   16260    8.9717026    -15598582            0    -15593794   -58168.339 
   16270    8.9809806    -15598594            0    -15593801    -58168.87 
   16280    8.9676449    -15598595            0    -15593809   -58169.033 
   16290    8.9528518    -15598591            0    -15593813   -58168.957 
   16300    8.9820178    -15598598            0    -15593804   -58169.134 
   16310    9.0196296    -15598601            0    -15593788   -58169.157 
   16320    9.0304816    -15598594            0    -15593775   -58168.842 
   16330     9.021202    -15598584            0    -15593770   -58168.426 
   16340    9.0135722    -15598580            0    -15593769   -58168.218 
   16350    9.0028843    -15598577            0    -15593773   -58168.129 
   16360    8.9913297    -15598579            0    -15593781   -58168.203 
   16370    8.9790156    -15598586            0    -15593794   -58168.402 
   16380    8.9573158    -15598587            0    -15593806   -58168.402 
   16390     8.955098    -15598590            0    -15593811   -58168.429 
   16400    8.9992744    -15598605            0    -15593802   -58168.853 
   16410    9.0489764    -15598618            0    -15593789   -58169.221 
   16420    9.0465196    -15598610            0    -15593783   -58168.958 
   16430    9.0022657    -15598592            0    -15593787   -58168.321 
   16440    8.9555654    -15598578            0    -15593798   -58167.799 
   16450    8.9385649    -15598573            0    -15593803   -58167.558 
   16460    8.9789311    -15598582            0    -15593790   -58167.706 
   16470    9.0548634    -15598600            0    -15593768   -58168.118 
   16480    9.0739928    -15598603            0    -15593760   -58168.105 
   16490    9.0274021    -15598589            0    -15593771   -58167.616 
   16500    8.9919563    -15598586            0    -15593787    -58167.51 
   16510    8.9854542    -15598593            0    -15593797     -58167.7 
   16520    8.9704511    -15598588            0    -15593800   -58167.514 
   16530    8.9761981    -15598586            0    -15593796   -58167.441 
   16540    9.0231547    -15598605            0    -15593789   -58168.004 
   16550    9.0593343    -15598625            0    -15593790    -58168.65 
   16560    9.0410246    -15598626            0    -15593801   -58168.677 
   16570    8.9940894    -15598613            0    -15593813   -58168.252 
   16580    8.9781593    -15598610            0    -15593819   -58168.158 
   16590    8.9972951    -15598620            0    -15593818   -58168.488 
   16600    9.0043896    -15598621            0    -15593815   -58168.562 
   16610    8.9869901    -15598609            0    -15593812    -58168.16 
   16620     8.996197    -15598603            0    -15593802   -58167.896 
   16630    9.0522405    -15598610            0    -15593779   -58167.929 
   16640     9.081715    -15598610            0    -15593763   -58167.705 
   16650    9.0439493    -15598594            0    -15593767   -58167.014 
   16660    8.9993339    -15598588            0    -15593785    -58166.67 
   16670    9.0028558    -15598608            0    -15593803   -58167.188 
   16680    9.0087912    -15598625            0    -15593817   -58167.561 
   16690    8.9958068    -15598625            0    -15593824   -58167.326 
   16700    8.9885393    -15598622            0    -15593825   -58166.961 
   16710     8.996035    -15598624            0    -15593823   -58166.778 
   16720    9.0206487    -15598635            0    -15593821   -58166.926 
   16730    9.0240216    -15598639            0    -15593823   -58166.909 
   16740    8.9770798    -15598622            0    -15593831   -58166.303 
   16750    8.9585027    -15598620            0    -15593839    -58166.16 
   16760    8.9974326    -15598642            0    -15593840   -58166.746 
   16770    9.0193844    -15598652            0    -15593838    -58166.94 
   16780    9.0070853    -15598647            0    -15593840   -58166.649 
   16790     9.004413    -15598651            0    -15593845   -58166.635 
   16800    9.0089528    -15598661            0    -15593854   -58166.915 
   16810    8.9978379    -15598668            0    -15593866   -58167.126 
   16820    8.9770906    -15598671            0    -15593880   -58167.166 
   16830     8.944004    -15598662            0    -15593888   -58166.736 
   16840    8.9394868    -15598652            0    -15593882   -58166.254 
   16850    9.0093522    -15598664            0    -15593856   -58166.407 
   16860    9.0641429    -15598677            0    -15593839   -58166.744 
   16870     9.054032    -15598675            0    -15593843   -58166.749 
   16880    9.0156213    -15598666            0    -15593855   -58166.566 
   16890    8.9859287    -15598661            0    -15593866   -58166.475 
   16900    8.9907318    -15598669            0    -15593871   -58166.752 
   16910    9.0089492    -15598681            0    -15593873   -58167.128 
   16920    9.0044665    -15598682            0    -15593877   -58167.147 
   16930    8.9742109    -15598674            0    -15593885   -58166.825 
   16940    8.9512202    -15598670            0    -15593893   -58166.632 
   16950    8.9696368    -15598680            0    -15593893   -58166.866 
   16960    9.0106612    -15598691            0    -15593882   -58167.116 
   16970    9.0240705    -15598685            0    -15593869   -58166.835 
   16980    9.0125638    -15598670            0    -15593860   -58166.279 
   16990    9.0213278    -15598667            0    -15593852   -58166.132 
   17000    9.0321815    -15598668            0    -15593848   -58166.108 
   17010    9.0136465    -15598661            0    -15593851   -58165.794 
   17020    8.9988265    -15598664            0    -15593862   -58165.799 
   17030    8.9960027    -15598681            0    -15593880   -58166.302 
   17040    8.9857743    -15598695            0    -15593900   -58166.788 
   17050    8.9786286    -15598705            0    -15593913   -58167.093 
   17060    8.9754466    -15598707            0    -15593917   -58167.168 
   17070    8.9823183    -15598709            0    -15593915   -58167.153 
   17080     9.002626    -15598711            0    -15593906   -58167.133 
   17090      9.03057    -15598710            0    -15593891   -58166.972 
   17100    9.0434607    -15598693            0    -15593867   -58166.194 
   17110     9.031088    -15598663            0    -15593844   -58164.951 
   17120    9.0241212    -15598646            0    -15593830   -58164.162 
   17130    9.0301799    -15598646            0    -15593827   -58163.975 
   17140    9.0384403    -15598654            0    -15593831   -58164.162 
   17150    9.0444418    -15598668            0    -15593841   -58164.572 
   17160     9.042561    -15598680            0    -15593854    -58164.93 
   17170    9.0346534    -15598687            0    -15593865    -58165.13 
   17180    9.0384912    -15598701            0    -15593877   -58165.546 
   17190    9.0352893    -15598716            0    -15593894   -58165.976 
   17200    9.0146681    -15598723            0    -15593912   -58166.166 
   17210     8.997148    -15598728            0    -15593926    -58166.28 
   17220    8.9964901    -15598737            0    -15593936   -58166.505 
   17230    8.9927737    -15598741            0    -15593942   -58166.588 
   17240    8.9795062    -15598738            0    -15593946   -58166.425 
   17250    8.9751815    -15598733            0    -15593944   -58166.214 
   17260    9.0005405    -15598733            0    -15593930   -58166.053 
   17270    9.0420677    -15598730            0    -15593904   -58165.665 
   17280    9.0472582    -15598717            0    -15593888    -58164.94 
   17290     9.020629    -15598701            0    -15593886   -58164.146 
   17300    8.9935446    -15598689            0    -15593889   -58163.518 
   17310    8.9803632    -15598683            0    -15593890   -58163.067 
   17320    8.9962245    -15598686            0    -15593885   -58162.882 
   17330    9.0448539    -15598695            0    -15593868    -58162.82 
   17340    9.1043657    -15598703            0    -15593844   -58162.741 
   17350    9.1121473    -15598706            0    -15593843   -58162.698 
   17360    9.0633183    -15598707            0    -15593870   -58162.785 
   17370    9.0325033    -15598715            0    -15593894   -58163.137 
   17380    9.0288422    -15598728            0    -15593909    -58163.64 
   17390    9.0162051    -15598737            0    -15593925   -58163.981 
   17400    8.9896307    -15598738            0    -15593941   -58164.015 
   17410    8.9782322    -15598742            0    -15593951   -58164.071 
   17420    8.9896838    -15598753            0    -15593955   -58164.296 
   17430    9.0080067    -15598764            0    -15593956   -58164.552 
   17440    9.0016168    -15598764            0    -15593960   -58164.454 
   17450    8.9711997    -15598753            0    -15593965   -58164.006 
   17460    8.9602617    -15598746            0    -15593965   -58163.679 
   17470    8.9926082    -15598749            0    -15593950   -58163.575 
   17480    9.0334034    -15598749            0    -15593928   -58163.392 
   17490    9.0532989    -15598748            0    -15593917   -58163.284 
   17500    9.0441186    -15598746            0    -15593920   -58163.285 
   17510    9.0121722    -15598744            0    -15593934   -58163.414 
   17520    8.9733172    -15598739            0    -15593950   -58163.577 
   17530    8.9596617    -15598738            0    -15593957   -58163.818 
   17540    8.9811868    -15598746            0    -15593953   -58164.206 
   17550    9.0104869    -15598755            0    -15593946   -58164.549 
   17560    9.0231481    -15598760            0    -15593944   -58164.713 
   17570    9.0033586    -15598752            0    -15593947   -58164.451 
   17580    8.9936401    -15598748            0    -15593948   -58164.331 
   17590    9.0153682    -15598759            0    -15593948   -58164.715 
   17600    9.0263044    -15598768            0    -15593951   -58165.084 
   17610    9.0079496    -15598770            0    -15593962   -58165.262 
   17620    8.9715837    -15598767            0    -15593979   -58165.367 
   17630    8.9483299    -15598768            0    -15593992   -58165.547 
   17640    8.9556308    -15598774            0    -15593994   -58165.786 
   17650    8.9803162    -15598770            0    -15593977   -58165.602 
   17660    9.0165058    -15598755            0    -15593943   -58164.953 
   17670    9.0208268    -15598742            0    -15593928   -58164.425 
   17680    9.0196076    -15598737            0    -15593924   -58164.235 
   17690    9.0263996    -15598742            0    -15593925   -58164.404 
   17700    9.0385748    -15598757            0    -15593934   -58164.941 
   17710    9.0310272    -15598773            0    -15593953   -58165.513 
   17720    8.9887445    -15598772            0    -15593975   -58165.524 
   17730    8.9667743    -15598768            0    -15593983   -58165.421 
   17740    9.0024276    -15598786            0    -15593981    -58165.97 
   17750    9.0362799    -15598803            0    -15593981   -58166.517 
   17760    9.0035083    -15598793            0    -15593988   -58166.162 
   17770    8.9354579    -15598765            0    -15593996   -58165.192 
   17780    8.9150674    -15598746            0    -15593988     -58164.4 
   17790    8.9876307    -15598747            0    -15593950   -58164.126 
   17800    9.0359377    -15598755            0    -15593933   -58164.179 
   17810    9.0382492    -15598756            0    -15593932   -58164.097 
   17820    9.0253066    -15598758            0    -15593941    -58164.18 
   17830    9.0291605    -15598775            0    -15593957   -58164.854 
   17840     9.036824    -15598800            0    -15593978   -58165.739 
   17850    9.0108236    -15598807            0    -15593999   -58165.945 
   17860    8.9678728    -15598798            0    -15594012   -58165.469 
   17870    8.9604544    -15598796            0    -15594014   -58165.112 
   17880    9.0031399    -15598810            0    -15594005   -58165.231 
   17890    9.0442173    -15598823            0    -15593996   -58165.323 
   17900    9.0512921    -15598828            0    -15593997   -58165.204 
   17910    9.0109332    -15598824            0    -15594015   -58164.905 
   17920    8.9665904    -15598827            0    -15594041   -58164.844 
   17930    8.9740079    -15598841            0    -15594052   -58165.134 
   17940     8.977959    -15598843            0    -15594052   -58165.021 
   17950    8.9645763    -15598830            0    -15594046   -58164.418 
   17960    8.9766985    -15598825            0    -15594034   -58164.012 
   17970    9.0125936    -15598832            0    -15594022   -58163.975 
   17980    9.0371989    -15598840            0    -15594017   -58164.015 
   17990    9.0156674    -15598832            0    -15594020   -58163.613 
   18000    8.9785131    -15598817            0    -15594025   -58163.043 
   18010      8.97999    -15598816            0    -15594024   -58162.965 
   18020    9.0153171    -15598830            0    -15594018   -58163.326 
   18030    9.0269045    -15598834            0    -15594016   -58163.391 
   18040    9.0091917    -15598829            0    -15594021   -58163.203 
   18050    9.0026979    -15598844            0    -15594040   -58163.737 
   18060     8.977106    -15598869            0    -15594078   -58164.645 
   18070    8.9667536    -15598878            0    -15594093   -58164.951 
   18080    8.9517989    -15598871            0    -15594093   -58164.583 
   18090    8.9482427    -15598857            0    -15594081   -58163.905 
   18100    8.9882111    -15598855            0    -15594058   -58163.585 
   18110    9.0248471    -15598858            0    -15594041    -58163.45 
   18120    9.0155861    -15598846            0    -15594035   -58162.938 
   18130    8.9980586    -15598835            0    -15594033   -58162.439 
   18140    9.0050992    -15598837            0    -15594031    -58162.34 
   18150    9.0077468    -15598836            0    -15594028    -58162.18 
   18160    9.0102464    -15598834            0    -15594026   -58162.019 
   18170    9.0290239    -15598843            0    -15594024   -58162.139 
   18180    9.0221876    -15598844            0    -15594029   -58162.098 
   18190    8.9868732    -15598840            0    -15594044   -58161.933 
   18200      8.98609    -15598853            0    -15594058    -58162.33 
   18210    9.0126654    -15598879            0    -15594069    -58163.05 
   18220    9.0015312    -15598887            0    -15594083    -58163.21 
   18230    8.9706966    -15598884            0    -15594097   -58163.035 
   18240    8.9723572    -15598891            0    -15594103   -58163.176 
   18250    8.9925671    -15598900            0    -15594101   -58163.401 
   18260     8.997608    -15598895            0    -15594093   -58163.115 
   18270    9.0074273    -15598875            0    -15594068   -58162.291 
   18280    9.0358527    -15598863            0    -15594041    -58161.67 
   18290    9.0501739    -15598862            0    -15594032   -58161.527 
   18300    9.0426618    -15598863            0    -15594037     -58161.6 
   18310    9.0240006    -15598867            0    -15594052   -58161.899 
   18320    9.0074049    -15598876            0    -15594069   -58162.346 
   18330     8.999637    -15598885            0    -15594082   -58162.741 
   18340    8.9848799    -15598884            0    -15594089   -58162.763 
   18350     8.975529    -15598880            0    -15594090    -58162.63 
   18360    9.0039991    -15598890            0    -15594085   -58162.926 
   18370    9.0302294    -15598900            0    -15594081   -58163.234 
   18380    9.0159251    -15598896            0    -15594084    -58163.12 
   18390    8.9927131    -15598895            0    -15594095   -58163.146 
   18400    8.9520626    -15598899            0    -15594122   -58163.411 
   18410    8.9165816    -15598903            0    -15594144   -58163.617 
   18420    8.9360601    -15598912            0    -15594143   -58163.817 
   18430    8.9741013    -15598916            0    -15594127   -58163.717 
   18440    8.9871179    -15598907            0    -15594111   -58163.153 
   18450    8.9810246    -15598893            0    -15594100   -58162.486 
   18460    8.9777968    -15598882            0    -15594091   -58161.942 
   18470    8.9749599    -15598870            0    -15594080   -58161.345 
   18480    8.9776868    -15598857            0    -15594066   -58160.729 
   18490    9.0150366    -15598862            0    -15594051   -58160.679 
   18500    9.0536169    -15598876            0    -15594044   -58160.965 
   18510    9.0432775    -15598877            0    -15594051   -58160.925 
   18520    9.0224026    -15598881            0    -15594066   -58160.991 
   18530    9.0182898    -15598893            0    -15594080   -58161.286 
   18540    9.0208101    -15598904            0    -15594090   -58161.493 
   18550    9.0014496    -15598901            0    -15594097   -58161.212 
   18560    8.9853474    -15598897            0    -15594102   -58160.876 
   18570    9.0188544    -15598915            0    -15594102   -58161.282 
   18580    9.0420533    -15598933            0    -15594107   -58161.694 
   18590    8.9945359    -15598924            0    -15594124   -58161.317 
   18600    8.9400423    -15598913            0    -15594141   -58160.847 
   18610    8.9526587    -15598921            0    -15594144   -58161.037 
   18620    9.0075131    -15598940            0    -15594133   -58161.553 
   18630     9.063802    -15598954            0    -15594117   -58161.939 
   18640    9.0826316    -15598952            0    -15594105   -58161.727 
   18650    9.0578049    -15598934            0    -15594100   -58161.041 
   18660    9.0198569    -15598925            0    -15594112   -58160.711 
   18670    8.9943701    -15598930            0    -15594130    -58160.93 
   18680    8.9850744    -15598941            0    -15594146    -58161.34 
   18690    8.9686817    -15598941            0    -15594155   -58161.377 
   18700    8.9344517    -15598922            0    -15594154   -58160.729 
   18710    8.9427736    -15598908            0    -15594136    -58160.13 
   18720    9.0096367    -15598918            0    -15594110   -58160.281 
   18730    9.0576596    -15598934            0    -15594100   -58160.735 
   18740    9.0428681    -15598932            0    -15594106   -58160.666 
   18750    8.9913899    -15598919            0    -15594121   -58160.248 
   18760    8.9658048    -15598916            0    -15594131   -58160.134 
   18770    8.9841729    -15598927            0    -15594132   -58160.494 
   18780    9.0243419    -15598944            0    -15594128    -58161.08 
   18790    9.0484928    -15598958            0    -15594129   -58161.508 
   18800    8.9965459    -15598949            0    -15594147   -58161.223 
   18810    8.9146445    -15598929            0    -15594172   -58160.616 
   18820    8.9059335    -15598925            0    -15594172   -58160.443 
   18830      8.96776    -15598938            0    -15594152   -58160.821 
   18840    9.0136007    -15598945            0    -15594135   -58161.108 
   18850    9.0203217    -15598943            0    -15594129   -58161.125 
   18860    9.0071542    -15598936            0    -15594129   -58160.972 
   18870    8.9857841    -15598926            0    -15594130    -58160.69 
   18880    8.9947411    -15598928            0    -15594128   -58160.743 
   18890    9.0228485    -15598937            0    -15594122   -58160.956 
   18900    9.0359503    -15598940            0    -15594117   -58160.934 
   18910    9.0298559    -15598939            0    -15594120   -58160.835 
   18920    8.9941196    -15598934            0    -15594134   -58160.699 
   18930    8.9561147    -15598931            0    -15594151   -58160.686 
   18940     8.967654    -15598943            0    -15594157   -58161.176 
   18950    9.0069209    -15598962            0    -15594155   -58161.803 
   18960    9.0261595    -15598969            0    -15594152   -58162.013 
   18970    9.0184609    -15598968            0    -15594156   -58161.932 
   18980    8.9879746    -15598965            0    -15594168   -58161.809 
   18990    8.9663495    -15598970            0    -15594185   -58161.969 
   19000    8.9600389    -15598977            0    -15594195    -58162.17 
   19010     8.970562    -15598983            0    -15594196   -58162.304 
   19020    8.9994937    -15598989            0    -15594186   -58162.379 
   19030    9.0393901    -15598993            0    -15594168   -58162.342 
   19040    9.0501492    -15598984            0    -15594155   -58161.865 
   19050    9.0169858    -15598962            0    -15594150   -58160.883 
   19060    8.9710448    -15598935            0    -15594147   -58159.752 
   19070    8.9844431    -15598925            0    -15594131   -58159.202 
   19080     9.055461    -15598937            0    -15594104   -58159.338 
   19090     9.085639    -15598945            0    -15594096   -58159.491 
   19100    9.0632305    -15598947            0    -15594110   -58159.462 
   19110    9.0069885    -15598939            0    -15594132   -58159.139 
   19120    8.9742356    -15598933            0    -15594144   -58158.894 
   19130    8.9928117    -15598945            0    -15594146   -58159.248 
   19140    9.0206037    -15598959            0    -15594145   -58159.767 
   19150    9.0200693    -15598963            0    -15594149    -58160.02 
   19160    9.0094699    -15598968            0    -15594160    -58160.34 
   19170    8.9803231    -15598972            0    -15594179    -58160.59 
   19180    8.9563942    -15598977            0    -15594197   -58160.865 
   19190    8.9685039    -15598990            0    -15594203   -58161.381 
   19200    8.9915758    -15599000            0    -15594201   -58161.781 
   19210    9.0001506    -15598993            0    -15594190   -58161.565 
   19220    9.0327471    -15598981            0    -15594160   -58161.024 
   19230    9.0565857    -15598973            0    -15594140   -58160.624 
   19240    9.0492822    -15598968            0    -15594139   -58160.343 
   19250    9.0262759    -15598967            0    -15594150   -58160.245 
   19260    9.0001383    -15598970            0    -15594166   -58160.315 
   19270    8.9754701    -15598969            0    -15594179   -58160.302 
   19280    8.9604382    -15598965            0    -15594183   -58160.168 
   19290     8.979069    -15598968            0    -15594176   -58160.318 
   19300    9.0242068    -15598981            0    -15594164   -58160.815 
   19310    9.0442654    -15598986            0    -15594159   -58161.113 
   19320    9.0240729    -15598981            0    -15594165   -58161.089 
   19330    8.9931298    -15598986            0    -15594187   -58161.424 
   19340    8.9410261    -15598997            0    -15594226   -58162.014 
   19350     8.934903    -15599001            0    -15594233     -58162.3 
   19360    8.9654757    -15599008            0    -15594223   -58162.631 
   19370    9.0092485    -15599016            0    -15594208   -58162.941 
   19380    9.0162142    -15599008            0    -15594196   -58162.673 
   19390    8.9811009    -15598982            0    -15594189   -58161.729 
   19400    8.9637827    -15598959            0    -15594175   -58160.834 
   19410    9.0043964    -15598960            0    -15594154   -58160.661 
   19420    9.0558041    -15598975            0    -15594142   -58161.054 
   19430    9.0718881    -15598987            0    -15594146   -58161.479 
   19440     9.044364    -15598989            0    -15594162   -58161.574 
   19450    9.0010016    -15598981            0    -15594178   -58161.355 
   19460     8.979359    -15598978            0    -15594186   -58161.203 
   19470    8.9759982    -15598976            0    -15594186   -58161.092 
   19480    8.9775644    -15598971            0    -15594179   -58160.815 
   19490    8.9993049    -15598968            0    -15594166   -58160.617 
   19500     9.048577    -15598980            0    -15594151   -58160.838 
   19510    9.0795002    -15598993            0    -15594148   -58161.182 
   19520    9.0388506    -15598990            0    -15594166   -58161.122 
   19530    8.9727955    -15598982            0    -15594193   -58160.977 
   19540    8.9805703    -15598992            0    -15594199   -58161.365 
   19550    9.0251349    -15599015            0    -15594198   -58162.159 
   19560    9.0420752    -15599029            0    -15594203   -58162.667 
   19570    9.0189571    -15599031            0    -15594218    -58162.82 
   19580    8.9850644    -15599031            0    -15594236   -58162.888 
   19590    8.9659405    -15599031            0    -15594246   -58162.977 
   19600    8.9732282    -15599035            0    -15594246   -58163.228 
   19610    9.0069924    -15599045            0    -15594238   -58163.693 
   19620    9.0410942    -15599054            0    -15594229   -58164.073 
   19630    9.0402816    -15599050            0    -15594226   -58163.989 
   19640    8.9948025    -15599034            0    -15594234   -58163.508 
   19650    8.9542658    -15599027            0    -15594248   -58163.327 
   19660    8.9624793    -15599038            0    -15594255   -58163.663 
   19670    8.9764523    -15599043            0    -15594252   -58163.707 
   19680     8.982342    -15599034            0    -15594240   -58163.269 
   19690    9.0121332    -15599030            0    -15594220   -58162.993 
   19700    9.0436234    -15599032            0    -15594205    -58162.97 
   19710    9.0459125    -15599031            0    -15594204   -58162.913 
   19720     9.018043    -15599025            0    -15594213   -58162.717 
   19730    8.9917483    -15599024            0    -15594225   -58162.687 
   19740    8.9713252    -15599022            0    -15594234   -58162.663 
   19750    8.9566166    -15599015            0    -15594235   -58162.461 
   19760    8.9855395    -15599018            0    -15594222   -58162.546 
   19770    9.0638472    -15599033            0    -15594195   -58162.909 
   19780    9.1262977    -15599041            0    -15594171    -58163.02 
   19790    9.1016933    -15599034            0    -15594176   -58162.669 
   19800    8.9950468    -15599011            0    -15594210   -58161.925 
   19810    8.9446097    -15598994            0    -15594221   -58161.275 
   19820    8.9716607    -15599001            0    -15594213   -58161.316 
   19830    9.0212538    -15599014            0    -15594200    -58161.55 
   19840    9.0534608    -15599023            0    -15594192   -58161.726 
   19850    9.0653809    -15599035            0    -15594197   -58162.115 
   19860    9.0366715    -15599041            0    -15594218   -58162.479 
   19870    9.0003702    -15599045            0    -15594242   -58162.791 
   19880      8.98954    -15599053            0    -15594256   -58163.203 
   19890    8.9850476    -15599059            0    -15594263   -58163.513 
   19900    8.9736006    -15599055            0    -15594266   -58163.573 
   19910    8.9883594    -15599059            0    -15594262   -58163.847 
   19920    9.0233572    -15599067            0    -15594251   -58164.262 
   19930    9.0411697    -15599067            0    -15594242   -58164.394 
   19940    9.0282563    -15599058            0    -15594240   -58164.193 
   19950    8.9996947    -15599049            0    -15594246   -58163.978 
   19960    8.9763138    -15599048            0    -15594257   -58164.062 
   19970    8.9793332    -15599060            0    -15594268   -58164.592 
   19980    8.9984384    -15599078            0    -15594276    -58165.27 
   19990    8.9822545    -15599079            0    -15594286   -58165.308 
   20000    8.9471187    -15599068            0    -15594293   -58164.872 
   20010     8.957747    -15599068            0    -15594287   -58164.714 
   20020    9.0054111    -15599070            0    -15594264   -58164.546 
   20030    9.0298339    -15599062            0    -15594243   -58164.046 
   20040    9.0269085    -15599053            0    -15594236   -58163.591 
   20050    9.0164272    -15599049            0    -15594237   -58163.352 
   20060    9.0004124    -15599044            0    -15594241   -58163.221 
   20070    8.9978447    -15599047            0    -15594245   -58163.346 
   20080    9.0027557    -15599055            0    -15594250   -58163.585 
   20090    8.9705086    -15599048            0    -15594261   -58163.408 
   20100    8.9367401    -15599045            0    -15594276   -58163.443 
   20110    8.9647378    -15599066            0    -15594281   -58164.311 
   20120    9.0212461    -15599093            0    -15594278   -58165.395 
   20130    9.0443019    -15599105            0    -15594279   -58165.985 
   20140    9.0152723    -15599103            0    -15594292    -58166.07 
   20150    8.9606226    -15599093            0    -15594311   -58165.911 
   20160    8.9320414    -15599086            0    -15594319   -58165.775 
   20170    8.9414837    -15599081            0    -15594309   -58165.617 
   20180    8.9643501    -15599069            0    -15594285    -58165.16 
   20190    8.9700875    -15599054            0    -15594267   -58164.633 
   20200     8.984869    -15599050            0    -15594255   -58164.573 
   20210    9.0195178    -15599058            0    -15594245   -58165.015 
   20220    9.0420648    -15599066            0    -15594241   -58165.519 
   20230    9.0358583    -15599069            0    -15594247   -58165.871 
   20240     8.997878    -15599065            0    -15594263   -58165.977 
   20250    8.9562156    -15599058            0    -15594278   -58165.935 
   20260    8.9457574    -15599055            0    -15594281   -58165.974 
   20270    8.9807359    -15599062            0    -15594269   -58166.302 
   20280    9.0432225    -15599077            0    -15594251   -58166.898 
   20290    9.0703181    -15599085            0    -15594244   -58167.291 
   20300    9.0355619    -15599076            0    -15594254   -58167.126 
   20310    8.9936527    -15599063            0    -15594264   -58166.772 
   20320    8.9742837    -15599054            0    -15594265   -58166.476 
   20330    8.9766546    -15599051            0    -15594260   -58166.332 
   20340    9.0123369    -15599060            0    -15594250    -58166.55 
   20350     9.049902    -15599073            0    -15594243   -58166.846 
   20360    9.0246799    -15599064            0    -15594248   -58166.471 
   20370    8.9755295    -15599050            0    -15594260   -58166.012 
   20380    8.9795285    -15599064            0    -15594271    -58166.44 
   20390    8.9988144    -15599084            0    -15594281   -58167.147 
   20400    8.9664403    -15599081            0    -15594296   -58167.218 
   20410    8.9236492    -15599073            0    -15594311   -58167.085 
   20420    8.9383123    -15599080            0    -15594310   -58167.329 
   20430    9.0060611    -15599094            0    -15594287   -58167.628 
   20440    9.0406704    -15599090            0    -15594265   -58167.312 
   20450    9.0107793    -15599067            0    -15594258   -58166.437 
   20460    8.9837785    -15599050            0    -15594256   -58165.785 
   20470    9.0039139    -15599056            0    -15594250   -58165.905 
   20480    9.0311647    -15599065            0    -15594246   -58166.246 
   20490    9.0197268    -15599061            0    -15594248   -58166.194 
   20500    8.9811582    -15599053            0    -15594260   -58166.042 
   20510    8.9484096    -15599058            0    -15594283   -58166.351 
   20520    8.9688615    -15599085            0    -15594298   -58167.325 
   20530    8.9936787    -15599105            0    -15594305   -58168.084 
   20540     8.978848    -15599103            0    -15594311    -58168.07 
   20550    8.9528511    -15599090            0    -15594312    -58167.64 
   20560    8.9727766    -15599083            0    -15594295   -58167.293 
   20570    9.0249614    -15599081            0    -15594264   -58166.927 
   20580    9.0109311    -15599060            0    -15594251   -58166.014 
   20590    8.9794915    -15599036            0    -15594244   -58165.092 
   20600    9.0056632    -15599041            0    -15594235   -58165.097 
   20610    9.0640035    -15599065            0    -15594228   -58165.763 
   20620    9.0732116    -15599079            0    -15594237    -58166.17 
   20630    9.0115046    -15599073            0    -15594264   -58166.043 
   20640    8.9729299    -15599068            0    -15594279   -58165.941 
   20650    8.9857686    -15599076            0    -15594280   -58166.259 
   20660    9.0122887    -15599087            0    -15594278   -58166.711 
   20670    9.0296435    -15599097            0    -15594278   -58167.133 
   20680    9.0342882    -15599108            0    -15594286   -58167.641 
   20690    8.9998252    -15599109            0    -15594306   -58167.882 
   20700    8.9508972    -15599100            0    -15594324   -58167.779 
   20710    8.9429866    -15599098            0    -15594325   -58167.764 
   20720    8.9765338    -15599105            0    -15594314   -58167.982 
   20730    8.9936489    -15599102            0    -15594302   -58167.904 
   20740    8.9944982    -15599095            0    -15594295   -58167.712 
   20750    9.0113168    -15599100            0    -15594291   -58167.862 
   20760    9.0289648    -15599109            0    -15594290    -58168.13 
   20770    9.0206094    -15599110            0    -15594296   -58168.144 
   20780    8.9940732    -15599107            0    -15594307   -58167.968 
   20790    8.9617712    -15599100            0    -15594317   -58167.642 
   20800    8.9524961    -15599096            0    -15594318    -58167.46 
   20810    9.0125082    -15599111            0    -15594301   -58167.831 
   20820    9.0846519    -15599120            0    -15594272    -58168.01 
   20830    9.0613284    -15599102            0    -15594266   -58167.393 
   20840    9.0117887    -15599085            0    -15594276   -58166.873 
   20850    9.0043969    -15599093            0    -15594288   -58167.156 
   20860    9.0054434    -15599105            0    -15594299   -58167.538 
   20870     8.975121    -15599098            0    -15594308   -58167.305 
   20880    8.9578708    -15599090            0    -15594310   -58167.033 
   20890    8.9958979    -15599102            0    -15594301   -58167.401 
   20900    9.0466619    -15599119            0    -15594291   -58167.971 
   20910    9.0470157    -15599119            0    -15594291    -58168.02 
   20920     8.970244    -15599107            0    -15594319   -58167.747 
   20930    8.9055257    -15599104            0    -15594351    -58167.77 
   20940    8.9439737    -15599122            0    -15594349   -58168.342 
   20950    9.0219466    -15599148            0    -15594334   -58169.089 
   20960      9.06723    -15599164            0    -15594325   -58169.421 
   20970    9.0312854    -15599152            0    -15594332   -58168.865 
   20980    8.9521813    -15599124            0    -15594347   -58167.817 
   20990    8.9330001    -15599118            0    -15594350   -58167.376 
   21000    8.9780305    -15599127            0    -15594335   -58167.417 
   21010    9.0298619    -15599133            0    -15594313   -58167.362 
   21020    9.0397929    -15599129            0    -15594305   -58167.076 
   21030    9.0347892    -15599129            0    -15594307   -58166.939 
   21040    9.0289991    -15599134            0    -15594315   -58166.975 
   21050    9.0119276    -15599135            0    -15594325   -58166.916 
   21060    9.0104196    -15599143            0    -15594334   -58167.112 
   21070    9.0234037    -15599158            0    -15594343    -58167.58 
   21080    9.0159719    -15599166            0    -15594354    -58167.79 
   21090    8.9886674    -15599162            0    -15594365   -58167.593 
   21100    8.9705138    -15599157            0    -15594369   -58167.261 
   21110    8.9817761    -15599159            0    -15594366   -58167.136 
   21120    8.9903612    -15599158            0    -15594360   -58166.897 
   21130    8.9841912    -15599149            0    -15594355   -58166.441 
   21140    8.9769677    -15599139            0    -15594348   -58165.956 
   21150    8.9742453    -15599129            0    -15594339   -58165.523 
   21160    9.0007419    -15599131            0    -15594328   -58165.581 
   21170    9.0478611    -15599150            0    -15594321    -58166.16 
   21180    9.0393987    -15599150            0    -15594326   -58166.201 
   21190    8.9940982    -15599137            0    -15594337   -58165.855 
   21200    8.9799156    -15599137            0    -15594344   -58165.911 
   21210    9.0142912    -15599156            0    -15594345    -58166.61 
   21220    9.0328282    -15599169            0    -15594348   -58167.111 
   21230    9.0025873    -15599159            0    -15594355   -58166.887 
   21240    8.9882631    -15599154            0    -15594358   -58166.791 
   21250    9.0076903    -15599164            0    -15594357   -58167.121 
   21260    9.0225552    -15599173            0    -15594358   -58167.371 
   21270    9.0173139    -15599176            0    -15594364   -58167.377 
   21280    8.9966287    -15599176            0    -15594375   -58167.259 
   21290    8.9770233    -15599179            0    -15594388   -58167.263 
   21300    8.9692978    -15599188            0    -15594402   -58167.528 
   21310    8.9598782    -15599200            0    -15594418   -58167.894 
   21320    8.9429513    -15599210            0    -15594437   -58168.225 
   21330    8.9440986    -15599221            0    -15594448   -58168.548 
   21340    8.9618491    -15599228            0    -15594445   -58168.608 
   21350    8.9825398    -15599220            0    -15594427   -58168.059 
   21360     9.007951    -15599208            0    -15594400   -58167.248 
   21370    9.0132532    -15599197            0    -15594386   -58166.534 
   21380    9.0178847    -15599194            0    -15594382   -58166.176 
   21390    9.0273856    -15599200            0    -15594382   -58166.148 
   21400    9.0182786    -15599202            0    -15594389   -58166.092 
   21410    8.9888704    -15599199            0    -15594402   -58165.946 
   21420    8.9740833    -15599202            0    -15594413   -58166.108 
   21430    8.9761671    -15599212            0    -15594421   -58166.502 
   21440    8.9728979    -15599217            0    -15594428   -58166.781 
   21450    8.9684301    -15599220            0    -15594434   -58166.993 
   21460    8.9768067    -15599225            0    -15594434   -58167.203 
   21470    8.9812257    -15599219            0    -15594426   -58167.064 
   21480    8.9937826    -15599210            0    -15594410   -58166.793 
   21490    9.0385864    -15599217            0    -15594393   -58167.008 
   21500    9.0689745    -15599227            0    -15594387   -58167.356 
   21510    9.0429312    -15599224            0    -15594398    -58167.34 
   21520    8.9994442    -15599222            0    -15594419    -58167.38 
   21530    8.9910897    -15599231            0    -15594433   -58167.784 
   21540    8.9957396    -15599239            0    -15594438   -58168.126 
   21550    8.9913743    -15599238            0    -15594440   -58168.158 
   21560    8.9844541    -15599233            0    -15594438   -58168.013 
   21570    8.9928159    -15599232            0    -15594433   -58167.965 
   21580    9.0100099    -15599232            0    -15594424    -58167.91 
   21590    9.0222022    -15599227            0    -15594412   -58167.598 
   21600    9.0216439    -15599207            0    -15594392   -58166.746 
   21610    9.0289785    -15599182            0    -15594364   -58165.745 
   21620    9.0490399    -15599177            0    -15594348    -58165.48 
   21630    9.0631776    -15599186            0    -15594349   -58165.771 
   21640    9.0474974    -15599191            0    -15594363   -58166.027 
   21650    9.0142175    -15599191            0    -15594380   -58166.092 
   21660    8.9922565    -15599190            0    -15594391   -58166.097 
   21670    8.9910173    -15599193            0    -15594395   -58166.217 
   21680    9.0131916    -15599206            0    -15594396   -58166.619 
   21690    9.0371349    -15599223            0    -15594400   -58167.139 
   21700    9.0230753    -15599231            0    -15594415   -58167.359 
   21710    8.9857927    -15599233            0    -15594438   -58167.391 
   21720    8.9608335    -15599232            0    -15594450   -58167.213 
   21730     8.967757    -15599235            0    -15594449   -58167.066 
   21740    8.9949463    -15599243            0    -15594442    -58167.11 
   21750    9.0193873    -15599250            0    -15594437   -58167.231 
   21760    9.0293793    -15599256            0    -15594437   -58167.331 
   21770    9.0263672    -15599262            0    -15594445   -58167.456 
   21780    9.0026705    -15599264            0    -15594460   -58167.487 
   21790    8.9762428    -15599267            0    -15594477   -58167.531 
   21800    8.9698827    -15599274            0    -15594487   -58167.686 
   21810    8.9792241    -15599279            0    -15594487    -58167.82 
   21820    9.0119332    -15599292            0    -15594482    -58168.09 
   21830    9.0449472    -15599301            0    -15594474   -58168.163 
   21840    9.0754114    -15599302            0    -15594459   -58167.887 
   21850    9.0628819    -15599292            0    -15594455   -58167.195 
   21860    9.0037858    -15599273            0    -15594467   -58166.242 
   21870    8.9615489    -15599264            0    -15594481   -58165.648 
   21880    8.9597842    -15599267            0    -15594485   -58165.464 
   21890    8.9848241    -15599273            0    -15594478   -58165.432 
   21900    9.0209281    -15599279            0    -15594465   -58165.433 
   21910    9.0463247    -15599282            0    -15594454   -58165.394 
   21920    9.0509939    -15599285            0    -15594455   -58165.361 
   21930    9.0227829    -15599287            0    -15594471   -58165.316 
   21940     8.962537    -15599280            0    -15594497   -58165.074 
   21950    8.9430636    -15599279            0    -15594506    -58164.97 
   21960    8.9908009    -15599298            0    -15594500   -58165.498 
   21970    9.0418563    -15599321            0    -15594495   -58166.054 
   21980    9.0301008    -15599319            0    -15594500   -58165.808 
   21990    8.9819349    -15599303            0    -15594510   -58165.089 
   22000    8.9788666    -15599306            0    -15594514   -58164.966 
   22010    9.0110907    -15599322            0    -15594513   -58165.283 
   22020    9.0146768    -15599324            0    -15594513   -58165.164 
   22030    8.9924068    -15599320            0    -15594521   -58164.832 
   22040    8.9702029    -15599324            0    -15594536   -58164.809 
   22050    8.9718521    -15599337            0    -15594549   -58165.088 
   22060     8.963159    -15599338            0    -15594554   -58164.933 
   22070    8.9394672    -15599319            0    -15594549   -58164.151 
   22080    8.9669852    -15599312            0    -15594526   -58163.661 
   22090     9.027648    -15599322            0    -15594504   -58163.784 
   22100    9.0498592    -15599327            0    -15594497   -58163.804 
   22110    9.0075855    -15599310            0    -15594503   -58163.107 
   22120    8.9731573    -15599299            0    -15594510   -58162.573 
   22130    8.9958461    -15599312            0    -15594511   -58162.822 
   22140    9.0334029    -15599331            0    -15594510   -58163.296 
   22150    9.0291151    -15599339            0    -15594520   -58163.425 
   22160    8.9744368    -15599335            0    -15594546   -58163.275 
   22170    8.9480453    -15599338            0    -15594563   -58163.319 
   22180    8.9772705    -15599355            0    -15594564   -58163.707 
   22190    8.9962559    -15599359            0    -15594558    -58163.66 
   22200    8.9837591    -15599345            0    -15594550   -58162.968 
   22210     8.993269    -15599335            0    -15594535   -58162.406 
   22220    9.0356694    -15599337            0    -15594515   -58162.216 
   22230    9.0649591    -15599341            0    -15594503   -58162.128 
   22240    9.0396582    -15599331            0    -15594507   -58161.711 
   22250    8.9999079    -15599320            0    -15594517   -58161.296 
   22260    9.0082838    -15599329            0    -15594521   -58161.504 
   22270    9.0390207    -15599348            0    -15594524   -58162.086 
   22280    9.0368828    -15599357            0    -15594535   -58162.364 
   22290    9.0017029    -15599355            0    -15594551   -58162.306 
   22300    8.9654455    -15599350            0    -15594565   -58162.161 
   22310    8.9557562    -15599348            0    -15594568   -58162.167 
   22320    8.9840547    -15599354            0    -15594559   -58162.446 
   22330    9.0362139    -15599367            0    -15594544   -58162.905 
   22340    9.0656321    -15599374            0    -15594536    -58163.17 
   22350    9.0329146    -15599365            0    -15594545     -58162.9 
   22360    8.9837045    -15599365            0    -15594570   -58162.921 
   22370    8.9799457    -15599385            0    -15594593   -58163.583 
   22380     9.000281    -15599403            0    -15594600   -58164.125 
   22390    8.9975097    -15599404            0    -15594602   -58164.093 
   22400    8.9746789    -15599392            0    -15594602   -58163.627 
   22410    8.9720231    -15599384            0    -15594596   -58163.299 
   22420    9.0011819    -15599385            0    -15594581   -58163.283 
   22430     9.026438    -15599384            0    -15594567   -58163.196 
   22440    9.0143873    -15599370            0    -15594560   -58162.685 
   22450    8.9975621    -15599358            0    -15594556   -58162.196 
   22460    9.0042651    -15599355            0    -15594550    -58162.06 
   22470    9.0380349    -15599357            0    -15594534   -58162.073 
   22480    9.0801774    -15599354            0    -15594508   -58161.851 
   22490    9.0725257    -15599341            0    -15594499    -58161.33 
   22500    9.0267742    -15599326            0    -15594509   -58160.776 
   22510    8.9907082    -15599324            0    -15594526   -58160.682 
   22520    8.9972845    -15599341            0    -15594540   -58161.214 
   22530    9.0140228    -15599360            0    -15594550   -58161.804 
   22540    9.0087947    -15599367            0    -15594560   -58162.006 
   22550     8.997609    -15599370            0    -15594568   -58162.034 
   22560    9.0034253    -15599377            0    -15594572   -58162.216 
   22570     9.019597    -15599388            0    -15594575   -58162.518 
   22580    9.0187726    -15599392            0    -15594579   -58162.577 
   22590    9.0106636    -15599394            0    -15594585   -58162.545 
   22600    9.0054244    -15599397            0    -15594591   -58162.565 
   22610    8.9972987    -15599399            0    -15594598   -58162.542 
   22620    8.9821405    -15599396            0    -15594603   -58162.399 
   22630    8.9867142    -15599400            0    -15594604     -58162.5 
   22640    9.0182856    -15599414            0    -15594601   -58162.897 
   22650    9.0304043    -15599417            0    -15594598   -58162.939 
   22660    8.9959026    -15599401            0    -15594601   -58162.408 
   22670    8.9744321    -15599393            0    -15594603   -58162.135 
   22680    8.9982077    -15599402            0    -15594600   -58162.408 
   22690    9.0212597    -15599408            0    -15594593   -58162.507 
   22700    9.0071398    -15599397            0    -15594590   -58161.997 
   22710    8.9892689    -15599384            0    -15594586   -58161.418 
   22720    9.0172645    -15599390            0    -15594578   -58161.486 
   22730    9.0630877    -15599407            0    -15594570   -58161.908 
   22740    9.0550543    -15599409            0    -15594577   -58161.932 
   22750    8.9859742    -15599397            0    -15594602   -58161.571 
   22760    8.9442191    -15599392            0    -15594618   -58161.435 
   22770    8.9784624    -15599409            0    -15594617   -58162.041 
   22780    9.0303472    -15599431            0    -15594612   -58162.777 
   22790    9.0236572    -15599429            0    -15594613    -58162.68 
   22800    8.9773449    -15599411            0    -15594620   -58162.034 
   22810    8.9630496    -15599408            0    -15594625   -58161.831 
   22820    8.9993779    -15599424            0    -15594622   -58162.232 
   22830    9.0476703    -15599441            0    -15594612   -58162.622 
   22840    9.0592563    -15599445            0    -15594610   -58162.633 
   22850    9.0249353    -15599441            0    -15594625   -58162.404 
   22860    8.9885627    -15599442            0    -15594645   -58162.384 
   22870    8.9867195    -15599455            0    -15594659   -58162.718 
   22880    8.9912098    -15599464            0    -15594666   -58162.936 
   22890    8.9795992    -15599462            0    -15594669   -58162.736 
   22900    8.9807132    -15599460            0    -15594667   -58162.527 
   22910    8.9976306    -15599458            0    -15594656    -58162.29 
   22920    9.0192519    -15599447            0    -15594633   -58161.753 
   22930    9.0294181    -15599430            0    -15594611   -58161.049 
   22940    9.0187721    -15599415            0    -15594601   -58160.447 
   22950    9.0153784    -15599410            0    -15594599    -58160.28 
   22960    9.0265024    -15599418            0    -15594601   -58160.582 
   22970    9.0403131    -15599433            0    -15594608   -58161.175 
   22980    9.0468481    -15599451            0    -15594623   -58161.885 
   22990    9.0230634    -15599454            0    -15594638   -58162.131 
   23000     8.993992    -15599446            0    -15594646   -58162.082 
   23010    8.9863735    -15599445            0    -15594649   -58162.261 
   23020    9.0245943    -15599464            0    -15594648   -58163.111 
   23030    9.0528556    -15599484            0    -15594653   -58163.972 
   23040    9.0264665    -15599490            0    -15594673   -58164.376 
   23050    8.9988605    -15599497            0    -15594695   -58164.781 
   23060    8.9859728    -15599501            0    -15594706   -58164.962 
   23070    8.9507559    -15599484            0    -15594708   -58164.339 
   23080    8.9209585    -15599458            0    -15594697   -58163.287 
   23090    8.9588612    -15599454            0    -15594673   -58162.943 
   23100    9.0249517    -15599472            0    -15594656   -58163.431 
   23110    9.0421692    -15599478            0    -15594652   -58163.642 
   23120    9.0073033    -15599466            0    -15594659   -58163.292 
   23130    8.9679327    -15599453            0    -15594667   -58162.846 
   23140    8.9620997    -15599450            0    -15594667   -58162.656 
   23150    9.0224737    -15599471            0    -15594656   -58163.167 
   23160    9.0921116    -15599498            0    -15594645   -58163.831 
   23170    9.0581273    -15599492            0    -15594657    -58163.52 
   23180    8.9501981    -15599464            0    -15594687    -58162.65 
   23190    8.9247443    -15599458            0    -15594695   -58162.465 
   23200    8.9723203    -15599473            0    -15594685   -58162.968 
   23210    9.0186038    -15599485            0    -15594672   -58163.386 
   23220     9.044381    -15599493            0    -15594666   -58163.706 
   23230    9.0483927    -15599501            0    -15594672   -58164.063 
   23240    9.0122798    -15599499            0    -15594690   -58164.163 
   23250    8.9628924    -15599489            0    -15594706   -58163.983 
   23260    8.9449916    -15599481            0    -15594707   -58163.815 
   23270    8.9640403    -15599482            0    -15594698   -58163.836 
   23280     8.996307    -15599488            0    -15594686   -58163.939 
   23290    9.0048318    -15599485            0    -15594679   -58163.741 
   23300    8.9943255    -15599474            0    -15594674    -58163.34 
   23310    9.0012221    -15599472            0    -15594669    -58163.26 
   23320    9.0141819    -15599473            0    -15594662   -58163.312 
   23330    9.0142471    -15599467            0    -15594657   -58163.178 
   23340    9.0299934    -15599470            0    -15594651   -58163.198 
   23350    9.0214965    -15599460            0    -15594645   -58162.799 
   23360    8.9972424    -15599444            0    -15594642   -58162.224 
   23370    9.0175081    -15599450            0    -15594638   -58162.379 
   23380    9.0518498    -15599467            0    -15594636    -58162.93 
   23390    9.0341182    -15599469            0    -15594647   -58163.108 
   23400    8.9843568    -15599463            0    -15594669   -58163.079 
   23410    8.9570086    -15599462            0    -15594682   -58163.132 
   23420    8.9677518    -15599468            0    -15594682   -58163.391 
   23430    9.0074028    -15599480            0    -15594673    -58163.84 
   23440    9.0412059    -15599490            0    -15594665   -58164.144 
   23450    9.0318894    -15599485            0    -15594665   -58163.955 
   23460    8.9832607    -15599473            0    -15594679   -58163.574 
   23470    8.9402048    -15599473            0    -15594702   -58163.693 
   23480    8.9682132    -15599500            0    -15594714   -58164.666 
   23490    9.0066004    -15599524            0    -15594717   -58165.524 
   23500    8.9921791    -15599521            0    -15594722   -58165.486 
   23510     8.967224    -15599513            0    -15594727   -58165.217 
   23520    8.9834047    -15599520            0    -15594725   -58165.367 
   23530     9.023479    -15599531            0    -15594715   -58165.575 
   23540    9.0421867    -15599530            0    -15594705   -58165.382 
   23550    9.0213069    -15599517            0    -15594702   -58164.769 
   23560    8.9848525    -15599500            0    -15594704   -58164.076 
   23570    8.9713292    -15599491            0    -15594704   -58163.682 
   23580    9.0005585    -15599496            0    -15594693   -58163.695 
   23590    9.0338334    -15599497            0    -15594676   -58163.625 
   23600    9.0383534    -15599488            0    -15594665   -58163.305 
   23610    9.0362974    -15599484            0    -15594662   -58163.209 
   23620    9.0366751    -15599492            0    -15594670   -58163.562 
   23630    9.0091941    -15599503            0    -15594695    -58164.09 
   23640    8.9695881    -15599507            0    -15594720   -58164.347 
   23650    8.9606496    -15599507            0    -15594725   -58164.427 
   23660    8.9782004    -15599511            0    -15594719   -58164.574 
   23670    9.0042907    -15599515            0    -15594709    -58164.72 
   23680    9.0325513    -15599521            0    -15594701   -58164.957 
   23690    9.0417467    -15599526            0    -15594700   -58165.136 
   23700    9.0153974    -15599523            0    -15594712   -58165.131 
   23710     8.962578    -15599518            0    -15594735   -58165.095 
   23720    8.9446795    -15599526            0    -15594752   -58165.402 
   23730      8.96692    -15599539            0    -15594754   -58165.791 
   23740    8.9851255    -15599541            0    -15594746   -58165.765 
   23750      8.99839    -15599538            0    -15594736    -58165.52 
   23760    9.0035207    -15599533            0    -15594728    -58165.22 
   23770     9.010175    -15599533            0    -15594725    -58165.14 
   23780    9.0149152    -15599537            0    -15594725    -58165.14 
   23790    9.0054629    -15599535            0    -15594729   -58164.945 
   23800    8.9766437    -15599523            0    -15594732   -58164.427 
   23810    8.9728995    -15599519            0    -15594730    -58164.18 
   23820     9.017054    -15599531            0    -15594719    -58164.52 
   23830    9.0530778    -15599540            0    -15594708   -58164.787 
   23840     9.049793    -15599539            0    -15594709   -58164.756 
   23850    9.0078675    -15599534            0    -15594726   -58164.616 
   23860    8.9610714    -15599533            0    -15594750   -58164.611 
   23870    8.9610841    -15599542            0    -15594760   -58164.886 
   23880    8.9892024    -15599555            0    -15594757    -58165.26 
   23890    9.0156555    -15599565            0    -15594753   -58165.569 
   23900    9.0171976    -15599565            0    -15594753   -58165.627 
   23910    8.9957708    -15599556            0    -15594756   -58165.451 
   23920     8.982056    -15599551            0    -15594757   -58165.395 
   23930    9.0025536    -15599558            0    -15594753   -58165.696 
   23940    9.0330069    -15599557            0    -15594737    -58165.68 
   23950    9.0256898    -15599536            0    -15594719   -58164.909 
   23960    9.0025932    -15599511            0    -15594706   -58164.031 
   23970    9.0047899    -15599500            0    -15594695   -58163.637 
   23980    9.0383368    -15599508            0    -15594684   -58163.872 
   23990    9.0629176    -15599520            0    -15594683   -58164.307 
   24000     9.034801    -15599520            0    -15594699    -58164.46 
   24010     8.987213    -15599519            0    -15594723   -58164.564 
   24020    8.9729793    -15599523            0    -15594734   -58164.757 
   24030     8.972895    -15599523            0    -15594734   -58164.783 
   24040      8.99397    -15599528            0    -15594728    -58164.92 
   24050    9.0178681    -15599534            0    -15594722   -58165.042 
   24060    9.0129612    -15599529            0    -15594718   -58164.782 
   24070    9.0099736    -15599527            0    -15594718   -58164.631 
   24080    9.0177024    -15599534            0    -15594722   -58164.812 
   24090    9.0142523    -15599549            0    -15594738   -58165.277 
   24100    8.9873135    -15599561            0    -15594764   -58165.679 
   24110    8.9624906    -15599563            0    -15594780   -58165.743 
   24120    8.9768684    -15599574            0    -15594783   -58166.056 
   24130    9.0117785    -15599589            0    -15594779   -58166.535 
   24140    9.0158921    -15599588            0    -15594777   -58166.541 
   24150    8.9960016    -15599578            0    -15594777   -58166.209 
   24160    8.9849927    -15599572            0    -15594777   -58165.978 
   24170    9.0098668    -15599579            0    -15594771    -58166.14 
   24180     9.041759    -15599588            0    -15594762   -58166.301 
   24190    9.0425867    -15599587            0    -15594761   -58166.131 
   24200    9.0061925    -15599577            0    -15594771   -58165.686 
   24210    8.9539275    -15599564            0    -15594786   -58165.132 
   24220    8.9381077    -15599560            0    -15594790   -58164.885 
   24230    8.9664454    -15599563            0    -15594777   -58164.818 
   24240    9.0084895    -15599560            0    -15594752   -58164.587 
   24250     9.037576    -15599561            0    -15594738   -58164.541 
   24260    9.0653566    -15599576            0    -15594738   -58165.043 
   24270    9.0558838    -15599584            0    -15594751   -58165.406 
   24280    9.0151074    -15599581            0    -15594770   -58165.408 
   24290    8.9981343    -15599584            0    -15594782   -58165.544 
   24300    8.9969398    -15599591            0    -15594789   -58165.704 
   24310    8.9803589    -15599586            0    -15594793     -58165.5 
   24320    8.9819039    -15599585            0    -15594792   -58165.441 
   24330    9.0086886    -15599592            0    -15594784   -58165.605 
   24340    9.0322916    -15599592            0    -15594772   -58165.524 
   24350    9.0385725    -15599582            0    -15594758   -58164.999 
   24360    9.0332719    -15599566            0    -15594745   -58164.225 
   24370    9.0347061    -15599556            0    -15594735   -58163.617 
   24380    9.0522696    -15599560            0    -15594729   -58163.484 
   24390    9.0472005    -15599565            0    -15594736   -58163.526 
   24400     9.005944    -15599567            0    -15594761   -58163.689 
   24410    8.9880867    -15599579            0    -15594782   -58164.191 
   24420    8.9823858    -15599584            0    -15594791   -58164.484 
   24430    8.9753936    -15599582            0    -15594792   -58164.454 
   24440    8.9830084    -15599580            0    -15594786   -58164.375 
   24450    8.9956568    -15599576            0    -15594775   -58164.117 
   24460    9.0108142    -15599569            0    -15594760    -58163.73 
   24470    9.0415132    -15599570            0    -15594745   -58163.631 
   24480    9.0775453    -15599584            0    -15594739    -58163.96 
   24490    9.0634016    -15599595            0    -15594758   -58164.324 
   24500    8.9950476    -15599599            0    -15594799   -58164.535 
   24510    8.9824052    -15599604            0    -15594810   -58164.595 
   24520    9.0013412    -15599616            0    -15594812   -58164.851 
   24530    9.0280656    -15599633            0    -15594815   -58165.196 
   24540     9.011743    -15599633            0    -15594824    -58165.04 
   24550    8.9686399    -15599622            0    -15594836    -58164.58 
   24560     8.965267    -15599626            0    -15594841   -58164.586 
   24570    8.9930437    -15599636            0    -15594837   -58164.812 
   24580    9.0058381    -15599634            0    -15594828   -58164.552 
   24590    9.0120928    -15599625            0    -15594815   -58163.962 
   24600    9.0223911    -15599616            0    -15594801   -58163.313 
   24610    9.0277499    -15599605            0    -15594787   -58162.673 
   24620    9.0412409    -15599602            0    -15594777   -58162.401 
   24630     9.068925    -15599613            0    -15594774   -58162.741 
   24640    9.0509137    -15599623            0    -15594792   -58163.184 
   24650    8.9827281    -15599619            0    -15594826   -58163.346 
   24660    8.9590736    -15599618            0    -15594837   -58163.502 
   24670    8.9809639    -15599628            0    -15594835   -58163.948 
   24680    9.0242225    -15599644            0    -15594828   -58164.523 
   24690    9.0301371    -15599645            0    -15594826   -58164.576 
   24700    8.9924945    -15599630            0    -15594830   -58164.145 
   24710     8.974377    -15599625            0    -15594835   -58164.088 
   24720    8.9878368    -15599632            0    -15594835   -58164.384 
   24730    9.0114172    -15599638            0    -15594829   -58164.567 
   24740    9.0247682    -15599637            0    -15594820   -58164.382 
   24750    9.0209935    -15599628            0    -15594814   -58163.915 
   24760     9.014101    -15599620            0    -15594810   -58163.514 
   24770      9.02478    -15599625            0    -15594808   -58163.542 
   24780    9.0275378    -15599632            0    -15594814   -58163.716 
   24790    9.0012437    -15599634            0    -15594830   -58163.838 
   24800    8.9838611    -15599644            0    -15594849   -58164.281 
   24810    8.9937582    -15599662            0    -15594862   -58165.028 
   24820    9.0051223    -15599677            0    -15594871   -58165.678 
   24830    9.0146275    -15599691            0    -15594880    -58166.23 
   24840     8.995327    -15599692            0    -15594891   -58166.289 
   24850    8.9563417    -15599680            0    -15594901   -58165.867 
   24860    8.9540572    -15599679            0    -15594900   -58165.646 
   24870    9.0160466    -15599685            0    -15594874   -58165.602 
   24880    9.0690029    -15599682            0    -15594842   -58165.253 
   24890    9.0502464    -15599669            0    -15594839   -58164.736 
   24900    9.0037738    -15599653            0    -15594848   -58164.191 
   24910    8.9703842    -15599644            0    -15594856     -58163.9 
   24920    8.9763044    -15599649            0    -15594858   -58164.023 
   24930    9.0017856    -15599656            0    -15594852   -58164.177 
   24940    9.0232212    -15599658            0    -15594843   -58164.039 
   24950    9.0214587    -15599646            0    -15594832   -58163.426 
   24960    9.0115556    -15599628            0    -15594819   -58162.653 
   24970    9.0476464    -15599631            0    -15594802   -58162.634 
   24980    9.0948798    -15599648            0    -15594794   -58163.184 
   24990    9.0720734    -15599653            0    -15594811   -58163.455 
   25000    9.0048382    -15599648            0    -15594842   -58163.435 
   25010    8.9793397    -15599646            0    -15594854   -58163.452 
   25020    8.9957579    -15599656            0    -15594855   -58163.867 
   25030    9.0332099    -15599677            0    -15594856   -58164.587 
   25040    9.0437162    -15599691            0    -15594865   -58165.118 
   25050    9.0060114    -15599691            0    -15594885   -58165.258 
   25060     8.996704    -15599704            0    -15594903   -58165.821 
   25070    9.0167577    -15599726            0    -15594914   -58166.624 
   25080    8.9787295    -15599715            0    -15594923   -58166.299 
   25090    8.9025303    -15599675            0    -15594923   -58164.923 
   25100    8.9076117    -15599656            0    -15594902   -58164.153 
   25110    8.9935949    -15599679            0    -15594879   -58164.736 
   25120    9.0465574    -15599699            0    -15594871   -58165.275 
   25130    9.0189523    -15599688            0    -15594874   -58164.802 
   25140    8.9703355    -15599670            0    -15594882   -58164.111 
   25150    8.9700655    -15599671            0    -15594884    -58164.05 
   25160    9.0005102    -15599680            0    -15594877   -58164.264 
   25170    9.0198973    -15599680            0    -15594866   -58164.215 
   25180    9.0283554    -15599675            0    -15594857   -58164.073 
   25190    9.0317049    -15599673            0    -15594853   -58164.039 
   25200    9.0174919    -15599668            0    -15594856   -58163.986 
   25210    8.9903408    -15599666            0    -15594868   -58164.032 
   25220    8.9756662    -15599675            0    -15594885   -58164.429 
   25230    8.9756785    -15599689            0    -15594899   -58164.933 
   25240    8.9691253    -15599693            0    -15594906   -58165.104 
   25250    8.9816492    -15599700            0    -15594907   -58165.306 
   25260    9.0086885    -15599708            0    -15594900   -58165.463 
   25270    9.0186617    -15599699            0    -15594886   -58165.079 
   25280    9.0200014    -15599682            0    -15594868   -58164.369 
   25290      9.03198    -15599671            0    -15594851   -58163.899 
   25300    9.0462692    -15599671            0    -15594843   -58163.774 
   25310    9.0376224    -15599670            0    -15594846   -58163.725 
   25320    9.0142922    -15599674            0    -15594863   -58163.948 
   25330    8.9806526    -15599681            0    -15594888    -58164.34 
   25340    8.9803848    -15599694            0    -15594902    -58164.89 
   25350    9.0077916    -15599712            0    -15594905   -58165.499 
   25360    9.0133152    -15599717            0    -15594907     -58165.7 
   25370    8.9981204    -15599713            0    -15594911   -58165.558 
   25380    8.9949864    -15599714            0    -15594913   -58165.533 
   25390    9.0117377    -15599724            0    -15594915   -58165.777 
   25400    9.0012251    -15599723            0    -15594919   -58165.694 
   25410    8.9622097    -15599712            0    -15594929   -58165.351 
   25420    8.9567742    -15599718            0    -15594938   -58165.554 
   25430    9.0029273    -15599745            0    -15594940   -58166.346 
   25440    9.0330645    -15599763            0    -15594942   -58166.786 
   25450    8.9910821    -15599752            0    -15594953   -58166.212 
   25460    8.9238889    -15599727            0    -15594964   -58165.145 
   25470    8.9175284    -15599716            0    -15594957   -58164.492 
   25480    8.9870465    -15599724            0    -15594928    -58164.51 
   25490    9.0384725    -15599735            0    -15594911   -58164.743 
   25500    9.0397442    -15599735            0    -15594910   -58164.693 
   25510    9.0170971    -15599731            0    -15594919   -58164.533 
   25520    8.9870102    -15599727            0    -15594931   -58164.363 
   25530    8.9654245    -15599724            0    -15594939   -58164.212 
   25540     8.954623    -15599717            0    -15594938   -58163.918 
   25550    8.9668334    -15599707            0    -15594922   -58163.433 
   25560     9.011339    -15599702            0    -15594893   -58163.042 
   25570    9.0431365    -15599707            0    -15594881   -58163.017 
   25580     9.041278    -15599708            0    -15594883   -58163.004 
   25590    9.0270124    -15599711            0    -15594894   -58163.148 
   25600    9.0262471    -15599726            0    -15594909   -58163.749 
   25610    9.0220171    -15599741            0    -15594926   -58164.406 
   25620     9.003435    -15599746            0    -15594941   -58164.739 
   25630    8.9826392    -15599744            0    -15594950   -58164.796 
   25640    8.9831356    -15599746            0    -15594951   -58164.936 
   25650    9.0007886    -15599752            0    -15594949    -58165.17 
   25660    9.0046482    -15599751            0    -15594945   -58165.102 
   25670     9.007642    -15599748            0    -15594940   -58164.953 
   25680     9.020188    -15599746            0    -15594932   -58164.837 
   25690    9.0314175    -15599738            0    -15594918   -58164.527 
   25700    9.0442081    -15599732            0    -15594905   -58164.266 
   25710    9.0529837    -15599733            0    -15594901   -58164.218 
   25720    9.0201689    -15599724            0    -15594911   -58163.946 
   25730    8.9750385    -15599717            0    -15594928   -58163.777 
   25740    8.9849349    -15599735            0    -15594940   -58164.375 
   25750    9.0098379    -15599756            0    -15594948   -58165.062 
   25760    8.9804529    -15599752            0    -15594959    -58164.87 
   25770    8.9299803    -15599734            0    -15594969   -58164.231 
   25780    8.9465717    -15599737            0    -15594962   -58164.164 
   25790    9.0419469    -15599755            0    -15594930   -58164.552 
   25800    9.0817874    -15599761            0    -15594914   -58164.627 
   25810    9.0444571    -15599748            0    -15594921   -58164.223 
   25820    9.0061041    -15599743            0    -15594937   -58164.131 
   25830    9.0015549    -15599755            0    -15594951    -58164.55 
   25840    9.0075546    -15599769            0    -15594961   -58165.023 
   25850    8.9932358    -15599770            0    -15594971   -58165.082 
   25860    8.9735401    -15599765            0    -15594976   -58164.895 
   25870    8.9774279    -15599766            0    -15594975   -58164.826 
   25880    8.9979422    -15599766            0    -15594964   -58164.673 
   25890    9.0334284    -15599759            0    -15594938   -58164.167 
   25900    9.0565117    -15599745            0    -15594911   -58163.389 
   25910    9.0479877    -15599734            0    -15594906   -58162.926 
   25920    9.0616266    -15599748            0    -15594912   -58163.396 
   25930    9.0784984    -15599774            0    -15594929   -58164.324 
   25940    9.0561777    -15599784            0    -15594951   -58164.749 
   25950    9.0113685    -15599778            0    -15594969   -58164.602 
   25960    8.9794619    -15599772            0    -15594980   -58164.431 
   25970    8.9821671    -15599778            0    -15594985   -58164.639 
   25980    9.0037329    -15599789            0    -15594984   -58165.071 
   25990    9.0163578    -15599796            0    -15594984   -58165.396 
   26000    9.0115007    -15599797            0    -15594988   -58165.554 
   26010    8.9879822    -15599794            0    -15594997   -58165.568 
   26020    8.9615587    -15599790            0    -15595008   -58165.594 
   26030    8.9640919    -15599797            0    -15595013   -58165.915 
   26040    9.0038422    -15599814            0    -15595009   -58166.514 
   26050     9.025621    -15599817            0    -15595000   -58166.567 
   26060    8.9894596    -15599790            0    -15594993   -58165.566 
   26070    8.9684798    -15599764            0    -15594978   -58164.525 
   26080    9.0045281    -15599759            0    -15594953   -58164.148 
   26090    9.0459133    -15599766            0    -15594938   -58164.233 
   26100    9.0528585    -15599769            0    -15594938   -58164.245 
   26110    9.0247628    -15599766            0    -15594950   -58164.011 
   26120    9.0033966    -15599770            0    -15594965    -58163.97 
   26130    9.0058732    -15599782            0    -15594976   -58164.232 
   26140    9.0191812    -15599798            0    -15594985   -58164.622 
   26150    9.0238252    -15599810            0    -15594994   -58164.889 
   26160    9.0054809    -15599810            0    -15595003    -58164.74 
   26170    8.9775519    -15599800            0    -15595009   -58164.234 
   26180    8.9655333    -15599791            0    -15595007   -58163.713 
   26190    8.9793432    -15599790            0    -15594998   -58163.409 
   26200    8.9962056    -15599788            0    -15594987   -58163.152 
   26210    9.0073073    -15599786            0    -15594979   -58162.951 
   26220    9.0155672    -15599786            0    -15594975   -58162.879 
   26230    9.0272161    -15599793            0    -15594975    -58163.04 
   26240    9.0312548    -15599801            0    -15594981   -58163.321 
   26250    9.0255386    -15599808            0    -15594991   -58163.664 
   26260    9.0163786    -15599813            0    -15595001   -58163.974 
   26270    9.0042762    -15599813            0    -15595007   -58164.108 
   26280    9.0083488    -15599819            0    -15595011   -58164.366 
   26290    9.0167803    -15599828            0    -15595016   -58164.645 
   26300     9.007506    -15599830            0    -15595023   -58164.673 
   26310    8.9929066    -15599832            0    -15595033   -58164.662 
   26320    8.9683577    -15599829            0    -15595042   -58164.512 
   26330    8.9565653    -15599827            0    -15595047   -58164.452 
   26340    8.9951194    -15599839            0    -15595039   -58164.813 
   26350    9.0604016    -15599854            0    -15595018   -58165.151 
   26360    9.0772386    -15599853            0    -15595008   -58164.965 
   26370    9.0189837    -15599831            0    -15595017   -58164.121 
   26380    8.9554406    -15599812            0    -15595033   -58163.415 
   26390    8.9729446    -15599827            0    -15595038   -58163.751 
   26400     9.019953    -15599851            0    -15595037   -58164.318 
   26410     9.015921    -15599851            0    -15595039   -58164.095 
   26420      8.98002    -15599843            0    -15595050   -58163.644 
   26430    8.9679068    -15599851            0    -15595065   -58163.787 
   26440    8.9783691    -15599867            0    -15595075    -58164.24 
   26450    8.9820574    -15599874            0    -15595081   -58164.452 
   26460    8.9801217    -15599874            0    -15595082   -58164.396 
   26470    8.9764772    -15599867            0    -15595076   -58164.047 
   26480    8.9997025    -15599861            0    -15595058   -58163.709 
   26490    9.0414124    -15599862            0    -15595037   -58163.532 
   26500    9.0363168    -15599850            0    -15595028   -58163.011 
   26510    8.9941709    -15599829            0    -15595029   -58162.216 
   26520    8.9768164    -15599818            0    -15595028   -58161.824 
   26530    9.0004475    -15599822            0    -15595019   -58161.879 
   26540    9.0543224    -15599832            0    -15595000   -58162.046 
   26550     9.094045    -15599833            0    -15594979   -58161.883 
   26560    9.0740607    -15599820            0    -15594977    -58161.35 
   26570    9.0285672    -15599818            0    -15594999   -58161.269 
   26580    8.9965204    -15599828            0    -15595027   -58161.674 
   26590    8.9933371    -15599838            0    -15595038    -58161.98 
   26600    8.9942335    -15599842            0    -15595042   -58162.121 
   26610    8.9965837    -15599844            0    -15595043   -58162.257 
   26620     9.023349    -15599859            0    -15595043    -58162.83 
   26630    9.0523634    -15599882            0    -15595051   -58163.678 
   26640    9.0227834    -15599890            0    -15595075   -58164.086 
   26650     8.962551    -15599880            0    -15595097    -58163.87 
   26660    8.9451417    -15599873            0    -15595100   -58163.712 
   26670    8.9829784    -15599884            0    -15595090    -58164.07 
   26680    9.0244964    -15599895            0    -15595078   -58164.416 
   26690    9.0128437    -15599883            0    -15595073   -58164.061 
   26700    8.9809805    -15599864            0    -15595071   -58163.436 
   26710    8.9962761    -15599863            0    -15595062   -58163.376 
   26720    9.0413371    -15599869            0    -15595044   -58163.487 
   26730    9.0676425    -15599864            0    -15595025   -58163.247 
   26740    9.0803264    -15599864            0    -15595018   -58163.176 
   26750     9.048079    -15599863            0    -15595035   -58163.201 
   26760    8.9697163    -15599855            0    -15595068   -58163.086 
   26770    8.9495111    -15599854            0    -15595078   -58163.119 
   26780    8.9854257    -15599868            0    -15595073   -58163.562 
   26790    9.0329889    -15599885            0    -15595064   -58164.014 
   26800    9.0316466    -15599884            0    -15595064   -58163.777 
   26810    8.9868372    -15599867            0    -15595071   -58163.035 
   26820    8.9637684    -15599861            0    -15595077   -58162.715 
   26830    9.0070302    -15599884            0    -15595077   -58163.392 
   26840     9.055112    -15599910            0    -15595077   -58164.225 
   26850    9.0232639    -15599909            0    -15595094   -58164.267 
   26860    8.9453533    -15599891            0    -15595117   -58163.749 
   26870    8.9193863    -15599882            0    -15595122   -58163.476 
   26880    8.9730417    -15599897            0    -15595108   -58163.898 
   26890    9.0387641    -15599914            0    -15595091   -58164.404 
   26900    9.0470443    -15599915            0    -15595087   -58164.315 
   26910    9.0189616    -15599907            0    -15595094     -58163.9 
   26920    9.0047062    -15599910            0    -15595104   -58163.824 
   26930    9.0172988    -15599926            0    -15595114   -58164.283 
   26940    9.0278375    -15599943            0    -15595125   -58164.847 
   26950    9.0035947    -15599942            0    -15595137   -58164.824 
   26960    8.9627363    -15599925            0    -15595142   -58164.153 
   26970    8.9429017    -15599909            0    -15595136    -58163.42 
   26980    8.9718272    -15599910            0    -15595122   -58163.228 
   26990    9.0255336    -15599923            0    -15595106   -58163.506 
   27000    9.0597206    -15599936            0    -15595101    -58163.85 
   27010    9.0402488    -15599935            0    -15595110   -58163.816 
   27020     8.990348    -15599926            0    -15595128   -58163.582 
   27030    8.9684674    -15599925            0    -15595139   -58163.601 
   27040    8.9796743    -15599932            0    -15595140   -58163.796 
   27050    8.9904113    -15599934            0    -15595136   -58163.752 
   27060    8.9917416    -15599928            0    -15595129    -58163.46 
   27070    9.0169923    -15599935            0    -15595122   -58163.577 
   27080    9.0468137    -15599949            0    -15595121   -58164.041 
   27090     9.043987    -15599955            0    -15595128   -58164.366 
   27100    9.0370064    -15599960            0    -15595137   -58164.707 
   27110    9.0255465    -15599963            0    -15595147   -58164.942 
   27120     8.985456    -15599953            0    -15595157   -58164.655 
   27130    8.9435166    -15599936            0    -15595163    -58164.07 
   27140    8.9532891    -15599931            0    -15595153   -58163.838 
   27150    9.0158222    -15599943            0    -15595132    -58164.12 
   27160    9.0516111    -15599949            0    -15595119   -58164.301 
   27170    9.0243927    -15599936            0    -15595120   -58163.904 
   27180    8.9872574    -15599923            0    -15595127   -58163.446 
   27190    8.9873469    -15599926            0    -15595130   -58163.438 
   27200    8.9972466    -15599931            0    -15595129   -58163.462 
   27210    9.0099334    -15599934            0    -15595125   -58163.465 
   27220    9.0395024    -15599941            0    -15595117   -58163.668 
   27230    9.0678295    -15599953            0    -15595114   -58164.056 
   27240    9.0500511    -15599958            0    -15595128   -58164.281 
   27250    8.9758187    -15599943            0    -15595153   -58163.891 
   27260    8.9221033    -15599925            0    -15595163   -58163.352 
   27270    8.9580024    -15599934            0    -15595153   -58163.636 
   27280    9.0283698    -15599953            0    -15595135   -58164.198 
   27290    9.0305432    -15599946            0    -15595126   -58163.921 
   27300     9.002101    -15599929            0    -15595125   -58163.377 
   27310    9.0085864    -15599933            0    -15595125   -58163.461 
   27320    9.0279617    -15599946            0    -15595128   -58163.879 
   27330    8.9953669    -15599944            0    -15595144     -58163.9 
   27340     8.938662    -15599940            0    -15595169   -58163.909 
   27350     8.947233    -15599954            0    -15595179   -58164.507 
   27360    8.9986728    -15599977            0    -15595175   -58165.342 
   27370    9.0368665    -15599991            0    -15595168   -58165.809 
   27380    9.0225596    -15599985            0    -15595170   -58165.518 
   27390    8.9528637    -15599960            0    -15595182   -58164.596 
   27400    8.9182722    -15599954            0    -15595194   -58164.254 
   27410    8.9704814    -15599977            0    -15595190   -58164.792 
   27420    9.0429898    -15599999            0    -15595173   -58165.253 
   27430     9.053445    -15599996            0    -15595164   -58164.928 
   27440    9.0068771    -15599974            0    -15595167   -58164.133 
   27450    8.9654778    -15599959            0    -15595174   -58163.695 
   27460    8.9757487    -15599966            0    -15595175    -58164.04 
   27470    9.0167404    -15599979            0    -15595167   -58164.605 
   27480     9.048218    -15599985            0    -15595156   -58164.804 
   27490    9.0511159    -15599983            0    -15595152    -58164.66 
   27500    9.0247309    -15599979            0    -15595163   -58164.433 
   27510    8.9770458    -15599974            0    -15595183   -58164.205 
   27520     8.940871    -15599967            0    -15595196   -58163.984 
   27530    8.9557737    -15599972            0    -15595193   -58164.101 
   27540    8.9965023    -15599979            0    -15595177   -58164.199 
   27550    9.0119696    -15599971            0    -15595161   -58163.793 
   27560       9.0038    -15599957            0    -15595152   -58163.226 
   27570    9.0030572    -15599953            0    -15595148   -58163.072 
   27580    9.0336535    -15599968            0    -15595147   -58163.705 
   27590    9.0556684    -15599986            0    -15595153   -58164.482 
   27600    9.0171155    -15599980            0    -15595168   -58164.446 
   27610     8.967153    -15599965            0    -15595179   -58164.006 
   27620    8.9800271    -15599973            0    -15595181   -58164.189 
   27630    9.0332275    -15599998            0    -15595177   -58164.891 
   27640     9.046022    -15600009            0    -15595182   -58165.219 
   27650    9.0146586    -15600012            0    -15595201   -58165.358 
   27660    8.9798109    -15600018            0    -15595226   -58165.663 
   27670    8.9647315    -15600019            0    -15595235    -58165.76 
   27680    8.9527759    -15600010            0    -15595232   -58165.483 
   27690     8.953333    -15599998            0    -15595220    -58165.11 
   27700     8.974666    -15599991            0    -15595202   -58164.833 
   27710    8.9959613    -15599985            0    -15595184   -58164.561 
   27720    9.0034267    -15599977            0    -15595172   -58164.218 
   27730    9.0110299    -15599973            0    -15595164    -58164.03 
   27740    9.0157925    -15599971            0    -15595159   -58163.967 
   27750    9.0141452    -15599968            0    -15595158    -58163.96 
   27760    9.0196818    -15599974            0    -15595160   -58164.205 
   27770    9.0116225    -15599981            0    -15595172   -58164.553 
   27780    8.9696798    -15599984            0    -15595197   -58164.817 
   27790    8.9491455    -15599990            0    -15595214   -58165.179 
   27800    8.9753016    -15600005            0    -15595215   -58165.809 
   27810    9.0208408    -15600024            0    -15595210   -58166.519 
   27820    9.0367881    -15600031            0    -15595208   -58166.798 
   27830    9.0147892    -15600029            0    -15595218   -58166.747 
   27840    8.9705753    -15600031            0    -15595243    -58166.88 
   27850    8.9427854    -15600038            0    -15595265   -58167.175 
   27860    8.9449324    -15600042            0    -15595268   -58167.239 
   27870    8.9547475    -15600036            0    -15595257   -58166.907 
   27880    8.9681937    -15600027            0    -15595241   -58166.391 
   27890    8.9741238    -15600017            0    -15595228   -58165.803 
   27900    8.9747492    -15600006            0    -15595216   -58165.215 
   27910    9.0020527    -15600008            0    -15595204   -58165.093 
   27920     9.034533    -15600017            0    -15595195   -58165.218 
   27930    9.0296467    -15600014            0    -15595195   -58165.048 
   27940    8.9996179    -15600006            0    -15595203   -58164.746 
   27950    8.9784304    -15600005            0    -15595213   -58164.715 
   27960    8.9607345    -15600005            0    -15595223   -58164.776 
   27970    8.9640913    -15600012            0    -15595228   -58165.091 
   27980     9.003197    -15600031            0    -15595226   -58165.727 
   27990    9.0323304    -15600041            0    -15595221   -58166.044 
   28000    9.0135319    -15600032            0    -15595222   -58165.717 
   28010     8.975024    -15600016            0    -15595226   -58165.241 
   28020    8.9853869    -15600021            0    -15595226   -58165.478 
   28030    9.0114326    -15600029            0    -15595220   -58165.839 
   28040    9.0141684    -15600024            0    -15595214   -58165.781 
   28050    9.0101388    -15600016            0    -15595207   -58165.576 
   28060    9.0278337    -15600019            0    -15595201   -58165.664 
   28070    9.0560718    -15600032            0    -15595199   -58166.033 
   28080    9.0342784    -15600034            0    -15595213   -58166.076 
   28090    8.9739756    -15600028            0    -15595238   -58165.836 
   28100    8.9692449    -15600037            0    -15595251   -58166.046 
   28110    8.9860424    -15600048            0    -15595252   -58166.221 
   28120    8.9708855    -15600036            0    -15595248   -58165.676 
   28130     8.981665    -15600029            0    -15595236   -58165.271 
   28140    9.0382724    -15600042            0    -15595218   -58165.448 
   28150    9.0601317    -15600045            0    -15595210   -58165.416 
   28160    9.0284928    -15600035            0    -15595216   -58164.998 
   28170    8.9889339    -15600025            0    -15595228   -58164.638 
   28180    8.9701189    -15600021            0    -15595234   -58164.435 
   28190    8.9736711    -15600020            0    -15595231   -58164.399 
   28200    9.0196814    -15600040            0    -15595226   -58165.034 
   28210    9.0624597    -15600064            0    -15595228   -58165.805 
   28220    9.0376294    -15600067            0    -15595244   -58165.911 
   28230    8.9890671    -15600062            0    -15595265   -58165.785 
   28240    8.9885739    -15600074            0    -15595277   -58166.175 
   28250    9.0103588    -15600092            0    -15595283   -58166.761 
   28260    8.9915584    -15600089            0    -15595290   -58166.639 
   28270    8.9400629    -15600065            0    -15595294   -58165.793 
   28280    8.9459025    -15600055            0    -15595281   -58165.301 
   28290    9.0297112    -15600069            0    -15595250   -58165.517 
   28300    9.0633571    -15600076            0    -15595239    -58165.62 
   28310    9.0254826    -15600062            0    -15595246   -58165.086 
   28320    8.9864358    -15600051            0    -15595255   -58164.648 
   28330    8.9974349    -15600062            0    -15595261   -58164.945 
   28340    9.0183119    -15600079            0    -15595266   -58165.399 
   28350    8.9894467    -15600074            0    -15595276   -58165.189 
   28360    8.9454467    -15600062            0    -15595288   -58164.778 
   28370    8.9667203    -15600075            0    -15595290   -58165.185 
   28380    9.0207643    -15600093            0    -15595279   -58165.773 
   28390      9.04328    -15600090            0    -15595264    -58165.68 
   28400    9.0296409    -15600072            0    -15595253   -58165.159 
   28410    9.0114446    -15600058            0    -15595248   -58164.753 
   28420    9.0171873    -15600057            0    -15595245   -58164.818 
   28430    9.0270706    -15600061            0    -15595244    -58165.03 
   28440    9.0047624    -15600056            0    -15595251   -58164.902 
   28450    8.9646576    -15600047            0    -15595263   -58164.634 
   28460    8.9533784    -15600049            0    -15595271     -58164.7 
   28470    8.9886984    -15600064            0    -15595267   -58165.233 
   28480    9.0452745    -15600084            0    -15595257   -58165.929 
   28490    9.0629342    -15600090            0    -15595254   -58166.183 
   28500    9.0159039    -15600080            0    -15595268   -58165.901 
   28510    8.9553875    -15600070            0    -15595291   -58165.638 
   28520    8.9471509    -15600075            0    -15595300   -58165.762 
   28530    8.9854804    -15600090            0    -15595295   -58166.199 
   28540    9.0299541    -15600105            0    -15595285   -58166.579 
   28550     9.039556    -15600107            0    -15595283   -58166.511 
   28560    9.0113821    -15600101            0    -15595292   -58166.116 
   28570    8.9519601    -15600097            0    -15595319   -58165.814 
   28580    8.9146394    -15600099            0    -15595341   -58165.735 
   28590    8.9433671    -15600111            0    -15595338   -58165.979 
   28600    9.0079649    -15600131            0    -15595324   -58166.469 
   28610     9.027683    -15600134            0    -15595316   -58166.385 
   28620    9.0017283    -15600119            0    -15595315   -58165.751 
   28630    9.0038186    -15600121            0    -15595316   -58165.569 
   28640    9.0168645    -15600129            0    -15595317   -58165.593 
   28650    8.9957333    -15600121            0    -15595321   -58165.158 
   28660    8.9624195    -15600107            0    -15595324   -58164.492 
   28670    8.9571637    -15600094            0    -15595314   -58163.856 
   28680    9.0051131    -15600082            0    -15595276   -58163.169 
   28690    9.0213001    -15600070            0    -15595255   -58162.573 
   28700    9.0256653    -15600065            0    -15595248   -58162.295 
   28710    9.0339465    -15600069            0    -15595247   -58162.401 
   28720    9.0465195    -15600084            0    -15595256   -58162.949 
   28730    9.0362374    -15600100            0    -15595278   -58163.548 
   28740     9.002193    -15600104            0    -15595300    -58163.77 
   28750    8.9924546    -15600111            0    -15595312   -58164.027 
   28760    9.0025356    -15600123            0    -15595319    -58164.39 
   28770     8.989926    -15600122            0    -15595324   -58164.336 
   28780    8.9801003    -15600119            0    -15595327   -58164.243 
   28790    9.0090502    -15600132            0    -15595324   -58164.619 
   28800    9.0417165    -15600147            0    -15595322   -58165.028 
   28810    9.0259362    -15600147            0    -15595330   -58164.993 
   28820     8.974527    -15600141            0    -15595352   -58164.837 
   28830    8.9437832    -15600140            0    -15595367   -58164.816 
   28840    8.9462693    -15600141            0    -15595366   -58164.755 
   28850    8.9699539    -15600138            0    -15595350   -58164.427 
   28860    8.9960971    -15600130            0    -15595329   -58163.859 
   28870    9.0182905    -15600130            0    -15595317    -58163.53 
   28880    9.0429663    -15600141            0    -15595314   -58163.649 
   28890    9.0418594    -15600147            0    -15595322   -58163.735 
   28900    9.0255187    -15600154            0    -15595337   -58163.816 
   28910     9.001641    -15600156            0    -15595352   -58163.755 
   28920     8.984005    -15600156            0    -15595361   -58163.575 
   28930    8.9857386    -15600159            0    -15595363   -58163.494 
   28940    8.9914484    -15600160            0    -15595361   -58163.331 
   28950    8.9827577    -15600150            0    -15595356    -58162.83 
   28960     8.989485    -15600143            0    -15595346   -58162.451 
   28970     9.028803    -15600147            0    -15595329     -58162.5 
   28980    9.0864183    -15600161            0    -15595312   -58162.946 
   28990    9.1022102    -15600168            0    -15595311   -58163.234 
   29000    9.0044895    -15600153            0    -15595347   -58163.002 
   29010    8.9421647    -15600143            0    -15595371   -58162.959 
   29020    8.9752677    -15600161            0    -15595371   -58163.803 
   29030    9.0397778    -15600190            0    -15595366   -58164.955 
   29040    9.0450525    -15600195            0    -15595368   -58165.291 
   29050     8.973092    -15600171            0    -15595382   -58164.579 
   29060    8.9230812    -15600151            0    -15595389   -58163.953 
   29070    8.9714059    -15600165            0    -15595378   -58164.294 
   29080    9.0376078    -15600181            0    -15595357   -58164.647 
   29090    9.0352646    -15600171            0    -15595349   -58164.233 
   29100    8.9990534    -15600152            0    -15595349   -58163.519 
   29110    8.9815834    -15600143            0    -15595349   -58163.092 
   29120    9.0002877    -15600148            0    -15595344   -58163.126 
   29130    9.0461474    -15600161            0    -15595334   -58163.449 
   29140    9.0868253    -15600170            0    -15595320   -58163.579 
   29150    9.0773473    -15600165            0    -15595321   -58163.363 
   29160    9.0426458    -15600171            0    -15595345    -58163.55 
   29170    9.0180772    -15600184            0    -15595371   -58164.043 
   29180    8.9851509    -15600183            0    -15595388   -58164.077 
   29190    8.9637694    -15600178            0    -15595395   -58163.991 
   29200    8.9805364    -15600185            0    -15595392   -58164.199 
   29210    9.0101478    -15600191            0    -15595383   -58164.378 
   29220    9.0233487    -15600189            0    -15595374   -58164.216 
   29230    9.0167792    -15600180            0    -15595367   -58163.764 
   29240    9.0097417    -15600171            0    -15595363   -58163.348 
   29250    9.0112776    -15600167            0    -15595358    -58163.07 
   29260    9.0192444    -15600165            0    -15595351   -58162.828 
   29270     9.023498    -15600161            0    -15595345   -58162.481 
   29280    9.0191397    -15600155            0    -15595342   -58162.072 
   29290    9.0150021    -15600154            0    -15595343    -58161.83 
   29300    9.0248112    -15600166            0    -15595350   -58162.036 
   29310    9.0208847    -15600181            0    -15595366   -58162.384 
   29320    8.9961499    -15600190            0    -15595389   -58162.611 
   29330     8.987643    -15600200            0    -15595403   -58162.876 
   29340    8.9977191    -15600211            0    -15595410   -58163.217 
   29350    9.0098371    -15600222            0    -15595414   -58163.516 
   29360    9.0081422    -15600227            0    -15595419    -58163.61 
   29370     8.982514    -15600221            0    -15595427   -58163.371 
   29380    8.9597099    -15600215            0    -15595434    -58163.15 
   29390    8.9549786    -15600211            0    -15595432   -58162.986 
   29400    8.9895683    -15600210            0    -15595412   -58162.808 
   29410    9.0323462    -15600208            0    -15595387   -58162.596 
   29420    9.0481161    -15600206            0    -15595377   -58162.409 
   29430    9.0377901    -15600203            0    -15595380   -58162.225 
   29440    9.0147035    -15600203            0    -15595392     -58162.2 
   29450    8.9922651    -15600208            0    -15595409   -58162.369 
   29460     8.971066    -15600208            0    -15595421   -58162.442 
   29470    8.9682886    -15600210            0    -15595424   -58162.503 
   29480    8.9856767    -15600214            0    -15595418   -58162.567 
   29490    9.0142158    -15600215            0    -15595404   -58162.518 
   29500    9.0496408    -15600211            0    -15595382   -58162.248 
   29510    9.0696967    -15600199            0    -15595359   -58161.675 
   29520     9.073015    -15600192            0    -15595350    -58161.31 
   29530    9.0575095    -15600196            0    -15595362   -58161.401 
   29540    8.9891763    -15600198            0    -15595400   -58161.593 
   29550     8.969531    -15600202            0    -15595415   -58161.798 
   29560    8.9893483    -15600213            0    -15595415   -58162.135 
   29570    9.0060701    -15600218            0    -15595412   -58162.276 
   29580    9.0094921    -15600217            0    -15595409   -58162.178 
   29590    9.0136803    -15600218            0    -15595408   -58162.116 
   29600    9.0179067    -15600223            0    -15595410   -58162.156 
   29610    9.0067725    -15600225            0    -15595418   -58162.167 
   29620    8.9992599    -15600235            0    -15595432   -58162.473 
   29630     8.999522    -15600253            0    -15595450   -58163.056 
   29640    8.9981325    -15600270            0    -15595467   -58163.587 
   29650     8.973932    -15600269            0    -15595480   -58163.533 
   29660    8.9427166    -15600254            0    -15595482   -58162.993 
   29670    8.9507181    -15600248            0    -15595471   -58162.664 
   29680    8.9909714    -15600253            0    -15595455   -58162.737 
   29690    9.0320827    -15600268            0    -15595448   -58163.092 
   29700    9.0372662    -15600274            0    -15595451   -58163.126 
   29710    8.9925898    -15600259            0    -15595460   -58162.514 
   29720    8.9532901    -15600244            0    -15595466   -58161.906 
   29730    8.9727608    -15600249            0    -15595460   -58161.969 
   29740    9.0276011    -15600262            0    -15595444   -58162.359 
   29750    9.0538758    -15600263            0    -15595431   -58162.376 
   29760    9.0375378    -15600252            0    -15595429   -58162.038 
   29770    8.9936329    -15600240            0    -15595440   -58161.728 
   29780    8.9489303    -15600241            0    -15595465   -58161.949 
   29790    8.9585169    -15600263            0    -15595482   -58162.842 
   29800    9.0017612    -15600291            0    -15595486   -58163.875 
   29810    9.0129298    -15600301            0    -15595491   -58164.283 
   29820     8.976999    -15600291            0    -15595500   -58163.971 
   29830    8.9281404    -15600273            0    -15595508   -58163.374 
   29840     8.914102    -15600257            0    -15595500   -58162.756 
   29850    8.9742425    -15600254            0    -15595465   -58162.436 
   29860    9.0299166    -15600263            0    -15595444   -58162.524 
   29870    9.0423584    -15600264            0    -15595439   -58162.354 
   29880    9.0015198    -15600247            0    -15595443   -58161.593 
   29890    8.9614087    -15600231            0    -15595449    -58160.92 
   29900    8.9954164    -15600246            0    -15595445   -58161.286 
   29910    9.0498649    -15600269            0    -15595439   -58161.956 
   29920    9.0352272    -15600265            0    -15595443   -58161.845 
   29930    8.9822166    -15600253            0    -15595459   -58161.503 
   29940    8.9561873    -15600254            0    -15595475   -58161.579 
   29950    8.9605255    -15600261            0    -15595479   -58161.802 
   29960    8.9885164    -15600269            0    -15595472   -58161.998 
   29970    9.0380002    -15600277            0    -15595454   -58162.126 
   29980    9.0717471    -15600275            0    -15595434   -58161.937 
   29990    9.0681138    -15600268            0    -15595428   -58161.606 
   30000    9.0281412    -15600261            0    -15595443   -58161.408 
   30010    8.9723456    -15600262            0    -15595474   -58161.605 
   30020      8.97232    -15600276            0    -15595488   -58162.202 
   30030    8.9946048    -15600289            0    -15595489   -58162.714 
   30040    8.9976962    -15600289            0    -15595487   -58162.709 
   30050    8.9801965    -15600277            0    -15595485   -58162.167 
   30060    8.9755364    -15600265            0    -15595475   -58161.577 
   30070    9.0149087    -15600267            0    -15595456   -58161.447 
   30080    9.0644957    -15600277            0    -15595440   -58161.643 
   30090    9.0475938    -15600269            0    -15595440    -58161.35 
   30100    8.9981243    -15600253            0    -15595451   -58160.899 
   30110    8.9828714    -15600251            0    -15595457   -58160.925 
   30120    8.9954667    -15600258            0    -15595457   -58161.206 
   30130    9.0025589    -15600261            0    -15595456   -58161.353 
   30140    9.0149751    -15600267            0    -15595456     -58161.6 
   30150    9.0261411    -15600277            0    -15595460   -58161.924 
   30160    9.0232703    -15600285            0    -15595470   -58162.203 
   30170    8.9909377    -15600285            0    -15595486   -58162.184 
   30180    8.9689738    -15600286            0    -15595500   -58162.251 
   30190    8.9938027    -15600304            0    -15595505   -58162.842 
   30200    9.0163261    -15600319            0    -15595507    -58163.33 
   30210    8.9845678    -15600311            0    -15595516   -58163.065 
   30220    8.9198459    -15600294            0    -15595533   -58162.559 
   30230     8.918181    -15600304            0    -15595545   -58162.908 
   30240    8.9701415    -15600323            0    -15595536   -58163.483 
   30250    9.0029259    -15600320            0    -15595516   -58163.279 
   30260    9.0052423    -15600303            0    -15595497   -58162.586 
   30270    9.0011146    -15600289            0    -15595485   -58161.972 
   30280    9.0061558    -15600283            0    -15595477   -58161.665 
   30290    9.0112532    -15600280            0    -15595471   -58161.511 
   30300    9.0113268    -15600277            0    -15595467   -58161.398 
   30310    9.0081198    -15600273            0    -15595466   -58161.315 
   30320     9.011206    -15600275            0    -15595465   -58161.408 
   30330    9.0273718    -15600287            0    -15595469   -58161.899 
   30340    9.0337059    -15600305            0    -15595484   -58162.677 
   30350    9.0200179    -15600322            0    -15595508   -58163.461 
   30360    8.9894918    -15600326            0    -15595528   -58163.778 
   30370    8.9613233    -15600321            0    -15595538   -58163.707 
   30380    8.9694032    -15600324            0    -15595537   -58163.775 
   30390    8.9941815    -15600327            0    -15595527   -58163.754 
   30400    9.0059872    -15600320            0    -15595513   -58163.349 
   30410    8.9987246    -15600301            0    -15595499   -58162.671 
   30420    9.0096147    -15600292            0    -15595484   -58162.404 
   30430    9.0438573    -15600300            0    -15595473   -58162.737 
   30440      9.03956    -15600298            0    -15595474   -58162.788 
   30450    8.9964608    -15600285            0    -15595484   -58162.423 
   30460    8.9688076    -15600279            0    -15595492   -58162.238 
   30470    8.9737214    -15600284            0    -15595495   -58162.365 
   30480    9.0048199    -15600292            0    -15595486   -58162.539 
   30490    9.0616551    -15600303            0    -15595467   -58162.779 
   30500     9.080452    -15600307            0    -15595461   -58162.879 
   30510    9.0358052    -15600298            0    -15595475    -58162.66 
   30520    8.9820582    -15600290            0    -15595496   -58162.549 
   30530    8.9612448    -15600291            0    -15595508   -58162.669 
   30540    8.9772327    -15600300            0    -15595509   -58163.018 
   30550    9.0136826    -15600313            0    -15595503   -58163.488 
   30560    9.0392014    -15600322            0    -15595498   -58163.838 
   30570    9.0288154    -15600321            0    -15595503   -58163.925 
   30580    8.9876398    -15600316            0    -15595520   -58163.938 
   30590    8.9539735    -15600317            0    -15595539   -58164.146 
   30600    8.9483099    -15600321            0    -15595546   -58164.394 
   30610    8.9655846    -15600323            0    -15595539   -58164.465 
   30620    8.9992762    -15600320            0    -15595517   -58164.215 
   30630    9.0307315    -15600314            0    -15595494   -58163.832 
   30640    9.0442957    -15600315            0    -15595488   -58163.714 
   30650     9.048954    -15600323            0    -15595493   -58163.834 
   30660    9.0322593    -15600326            0    -15595506   -58163.854 
   30670    8.9884327    -15600318            0    -15595521   -58163.536 
   30680    8.9552529    -15600307            0    -15595528   -58163.234 
   30690    8.9814211    -15600317            0    -15595524   -58163.616 
   30700    9.0426813    -15600340            0    -15595514   -58164.444 
   30710    9.0641464    -15600351            0    -15595513   -58164.852 
   30720    8.9966019    -15600334            0    -15595533   -58164.387 
   30730    8.9115771    -15600315            0    -15595559   -58163.789 
   30740    8.9211958    -15600320            0    -15595559   -58163.922 
   30750    8.9918222    -15600343            0    -15595544   -58164.634 
   30760     9.025198    -15600353            0    -15595536   -58164.947 
   30770     9.006809    -15600342            0    -15595536    -58164.64 
   30780    8.9840787    -15600331            0    -15595536    -58164.28 
   30790    8.9817787    -15600326            0    -15595533   -58164.119 
   30800    9.0021227    -15600327            0    -15595523   -58164.118 
   30810    9.0321393    -15600328            0    -15595508   -58164.122 
   30820    9.0592839    -15600328            0    -15595494   -58164.126 
   30830    9.0656031    -15600326            0    -15595488   -58164.089 
   30840    9.0334375    -15600322            0    -15595502   -58164.072 
   30850    8.9686642    -15600317            0    -15595531   -58164.079 
   30860    8.9481405    -15600320            0    -15595544   -58164.291 
   30870    8.9735727    -15600330            0    -15595541   -58164.797 
   30880    9.0110268    -15600341            0    -15595532    -58165.29 
   30890    9.0191507    -15600337            0    -15595523     -58165.3 
   30900     9.011508    -15600327            0    -15595518   -58165.092 
   30910     9.012958    -15600323            0    -15595513   -58165.005 
   30920    9.0223562    -15600322            0    -15595507    -58164.96 
   30930    9.0347727    -15600322            0    -15595500   -58164.895 
   30940     9.026084    -15600316            0    -15595499   -58164.629 
   30950    9.0053674    -15600311            0    -15595505    -58164.42 
   30960    9.0037917    -15600321            0    -15595515     -58164.7 
   30970    9.0081105    -15600337            0    -15595529   -58165.193 
   30980    8.9781835    -15600337            0    -15595546   -58165.174 
   30990    8.9498841    -15600331            0    -15595555    -58164.95 
   31000    8.9812473    -15600345            0    -15595552   -58165.296 
   31010    9.0352716    -15600363            0    -15595541    -58165.74 
   31020    9.0570428    -15600366            0    -15595532   -58165.689 
   31030    9.0405325    -15600359            0    -15595534   -58165.403 
   31040    8.9992687    -15600357            0    -15595554   -58165.422 
   31050    8.9710285    -15600364            0    -15595576   -58165.823 
   31060    8.9670695    -15600372            0    -15595586   -58166.209 
   31070      8.96861    -15600373            0    -15595586   -58166.298 
   31080    8.9713111    -15600365            0    -15595577    -58166.03 
   31090    8.9821606    -15600351            0    -15595557   -58165.497 
   31100    8.9979633    -15600339            0    -15595537   -58164.973 
   31110    9.0035227    -15600331            0    -15595526   -58164.616 
   31120    9.0123735    -15600331            0    -15595521   -58164.572 
   31130    9.0109885    -15600330            0    -15595521   -58164.551 
   31140    9.0071098    -15600329            0    -15595522    -58164.62 
   31150    9.0062488    -15600332            0    -15595526   -58164.847 
   31160    9.0026452    -15600338            0    -15595533   -58165.168 
   31170    8.9771991    -15600339            0    -15595548   -58165.369 
   31180    8.9394639    -15600337            0    -15595567   -58165.513 
   31190    8.9699394    -15600362            0    -15595575   -58166.506 
   31200    9.0364088    -15600400            0    -15595577   -58167.943 
   31210    9.0318661    -15600411            0    -15595591   -58168.572 
   31220    8.9480005    -15600394            0    -15595619   -58168.242 
   31230    8.8954056    -15600374            0    -15595627   -58167.683 
   31240     8.914068    -15600367            0    -15595610   -58167.468 
   31250    8.9647288    -15600371            0    -15595587   -58167.596 
   31260    9.0065715    -15600379            0    -15595572   -58167.844 
   31270    9.0161759    -15600375            0    -15595564   -58167.706 
   31280    8.9851256    -15600354            0    -15595559   -58166.954 
   31290    8.9701146    -15600336            0    -15595549   -58166.319 
   31300     9.015031    -15600343            0    -15595531   -58166.439 
   31310    9.0623698    -15600355            0    -15595519   -58166.786 
   31320    9.0646971    -15600360            0    -15595522     -58166.9 
   31330    9.0256293    -15600358            0    -15595541   -58166.833 
   31340      8.98701    -15600355            0    -15595559   -58166.752 
   31350    8.9972646    -15600366            0    -15595564   -58167.076 
   31360    9.0169305    -15600378            0    -15595566   -58167.427 
   31370    9.0081895    -15600378            0    -15595571   -58167.342 
   31380    8.9848216    -15600371            0    -15595576   -58167.001 
   31390    8.9765304    -15600369            0    -15595578   -58166.776 
   31400    8.9983044    -15600375            0    -15595573   -58166.833 
   31410    9.0419142    -15600385            0    -15595560   -58166.988 
   31420    9.0814492    -15600394            0    -15595547    -58167.05 
   31430    9.0684186    -15600392            0    -15595552   -58166.779 
   31440    9.0040627    -15600384            0    -15595579   -58166.368 
   31450    8.9626818    -15600381            0    -15595598   -58166.153 
   31460     8.975775    -15600391            0    -15595601     -58166.4 
   31470    9.0282663    -15600416            0    -15595598   -58167.151 
   31480    9.0449421    -15600428            0    -15595601   -58167.506 
   31490    8.9892946    -15600414            0    -15595617   -58167.024 
   31500    8.9351536    -15600400            0    -15595631   -58166.526 
   31510    8.9319557    -15600396            0    -15595629    -58166.36 
   31520    8.9772904    -15600396            0    -15595605    -58166.23 
   31530    9.0082313    -15600386            0    -15595578   -58165.803 
   31540    9.0093904    -15600380            0    -15595571   -58165.535 
   31550    9.0174872    -15600382            0    -15595570   -58165.564 
   31560    9.0144385    -15600383            0    -15595573   -58165.594 
   31570    9.0202203    -15600393            0    -15595579    -58165.98 
   31580     9.029843    -15600412            0    -15595593   -58166.699 
   31590    9.0088914    -15600422            0    -15595614   -58167.139 
   31600    8.9715218    -15600418            0    -15595630   -58167.093 
   31610    8.9602848    -15600416            0    -15595634   -58167.038 
   31620     8.984698    -15600423            0    -15595628   -58167.257 
   31630    9.0001209    -15600421            0    -15595618   -58167.217 
   31640    8.9876134    -15600404            0    -15595607   -58166.705 
   31650    8.9949531    -15600395            0    -15595594   -58166.451 
   31660    9.0363278    -15600404            0    -15595582   -58166.785 
   31670    9.0531085    -15600411            0    -15595580   -58167.043 
   31680    9.0280865    -15600405            0    -15595587   -58166.871 
   31690    9.0080185    -15600400            0    -15595593   -58166.731 
   31700    9.0142324    -15600408            0    -15595597   -58166.999 
   31710     9.009949    -15600413            0    -15595604   -58167.144 
   31720    8.9799986    -15600405            0    -15595613   -58166.837 
   31730    8.9528941    -15600394            0    -15595616   -58166.313 
   31740    8.9620025    -15600390            0    -15595607     -58165.9 
   31750    9.0185281    -15600396            0    -15595583   -58165.806 
   31760    9.0578357    -15600401            0    -15595567   -58165.765 
   31770    9.0522149    -15600400            0    -15595569   -58165.625 
   31780     9.034044    -15600402            0    -15595581   -58165.646 
   31790    9.0020622    -15600398            0    -15595594     -58165.5 
   31800     8.979485    -15600393            0    -15595601    -58165.31 
   31810    8.9977787    -15600403            0    -15595601   -58165.587 
   31820     9.019391    -15600414            0    -15595600   -58165.922 
   31830     9.009401    -15600412            0    -15595603   -58165.892 
   31840    8.9929517    -15600409            0    -15595610   -58165.875 
   31850    8.9764547    -15600410            0    -15595619   -58165.979 
   31860     8.955455    -15600413            0    -15595634   -58166.214 
   31870    8.9493174    -15600423            0    -15595647    -58166.65 
   31880    8.9688496    -15600436            0    -15595649   -58167.155 
   31890     9.006329    -15600449            0    -15595642   -58167.623 
   31900    9.0246493    -15600449            0    -15595633   -58167.687 
   31910    9.0129008    -15600436            0    -15595626   -58167.334 
   31920    9.0021119    -15600423            0    -15595619   -58166.997 
   31930    9.0064947    -15600414            0    -15595607   -58166.779 
   31940    9.0369662    -15600414            0    -15595591   -58166.836 
   31950    9.0688731    -15600421            0    -15595581   -58167.027 
   31960    9.0375767    -15600410            0    -15595587   -58166.636 
   31970    8.9624247    -15600390            0    -15595607   -58166.027 
   31980    8.9512271    -15600400            0    -15595623   -58166.358 
   31990     9.006981    -15600434            0    -15595627   -58167.396 
   32000    9.0183743    -15600446            0    -15595633    -58167.69 
   32010    8.9636287    -15600436            0    -15595652   -58167.321 
   32020     8.933899    -15600445            0    -15595678   -58167.627 
   32030    8.9697446    -15600474            0    -15595687   -58168.559 
   32040    8.9999732    -15600491            0    -15595688   -58169.058 
   32050    8.9900773    -15600484            0    -15595687   -58168.714 
   32060    8.9743259    -15600468            0    -15595679   -58167.962 
   32070    9.0003843    -15600455            0    -15595652   -58167.224 
   32080    9.0291535    -15600445            0    -15595627   -58166.712 
   32090    9.0426606    -15600445            0    -15595619   -58166.645 
   32100    9.0388713    -15600446            0    -15595622   -58166.773 
   32110    9.0079854    -15600443            0    -15595636   -58166.784 
   32120    8.9705213    -15600437            0    -15595650    -58166.69 
   32130    8.9522866    -15600433            0    -15595655   -58166.586 
   32140    8.9716279    -15600436            0    -15595648   -58166.652 
   32150    9.0297569    -15600448            0    -15595629   -58166.936 
   32160    9.0656859    -15600451            0    -15595612    -58166.91 
   32170    9.0519394    -15600442            0    -15595611   -58166.568 
   32180    9.0159237    -15600443            0    -15595632   -58166.644 
   32190    8.9705093    -15600458            0    -15595670   -58167.295 
   32200    8.9789184    -15600473            0    -15595681   -58167.888 
   32210    9.0127894    -15600492            0    -15595682   -58168.542 
   32220     9.034698    -15600507            0    -15595686   -58169.055 
   32230    9.0107404    -15600507            0    -15595698   -58169.063 
   32240    8.9657517    -15600497            0    -15595713   -58168.769 
   32250    8.9297567    -15600483            0    -15595718   -58168.296 
   32260    8.9480548    -15600479            0    -15595704     -58168.1 
   32270    9.0211977    -15600493            0    -15595679    -58168.41 
   32280    9.0486474    -15600499            0    -15595670   -58168.459 
   32290    9.0159846    -15600486            0    -15595674   -58167.875 
   32300    8.9764412    -15600470            0    -15595679   -58167.198 
   32310    8.9889237    -15600476            0    -15595679   -58167.203 
   32320    9.0282937    -15600493            0    -15595675   -58167.563 
   32330    9.0250367    -15600493            0    -15595677   -58167.408 
   32340    8.9687494    -15600475            0    -15595689   -58166.762 
   32350    8.9293738    -15600468            0    -15595702   -58166.539 
   32360    8.9622966    -15600485            0    -15595702   -58167.126 
   32370    9.0213711    -15600504            0    -15595689   -58167.669 
   32380    9.0399003    -15600500            0    -15595676   -58167.401 
   32390    9.0133226    -15600479            0    -15595669    -58166.53 
   32400    9.0038443    -15600468            0    -15595663   -58166.005 
   32410    9.0441656    -15600481            0    -15595654   -58166.253 
   32420    9.0700475    -15600493            0    -15595652   -58166.478 
   32430    9.0172751    -15600483            0    -15595671   -58166.097 
   32440    8.9535544    -15600473            0    -15595694   -58165.746 
   32450    8.9661304    -15600487            0    -15595701   -58166.095 
   32460    9.0116743    -15600508            0    -15595699   -58166.682 
   32470    9.0216626    -15600513            0    -15595698   -58166.744 
   32480    9.0051701    -15600509            0    -15595703   -58166.572 
   32490    8.9880922    -15600511            0    -15595714   -58166.634 
   32500    8.9673501    -15600517            0    -15595731   -58166.881 
   32510    8.9466714    -15600522            0    -15595747   -58167.074 
   32520    8.9473572    -15600527            0    -15595752   -58167.223 
   32530    8.9831121    -15600536            0    -15595742   -58167.428 
   32540    9.0468241    -15600548            0    -15595719   -58167.638 
   32550    9.0556232    -15600539            0    -15595706   -58167.175 
   32560    9.0072249    -15600514            0    -15595707   -58166.228 
   32570    8.9867034    -15600506            0    -15595710   -58165.941 
   32580    9.0181726    -15600526            0    -15595713   -58166.609 
   32590    9.0277863    -15600545            0    -15595727   -58167.319 
   32600    8.9676104    -15600540            0    -15595754   -58167.227 
   32610     8.923229    -15600529            0    -15595767   -58166.781 
   32620    8.9396195    -15600529            0    -15595758   -58166.604 
   32630    8.9945878    -15600537            0    -15595736   -58166.627 
   32640    9.0186429    -15600533            0    -15595720   -58166.348 
   32650    9.0055024    -15600519            0    -15595713   -58165.769 
   32660    8.9994549    -15600511            0    -15595708     -58165.4 
   32670    9.0184815    -15600516            0    -15595703   -58165.438 
   32680    9.0335663    -15600522            0    -15595701   -58165.515 
   32690    9.0165427    -15600521            0    -15595709   -58165.398 
   32700     8.976487    -15600522            0    -15595732   -58165.438 
   32710    8.9577659    -15600533            0    -15595752   -58165.837 
   32720      8.97904    -15600551            0    -15595759   -58166.458 
   32730    9.0064059    -15600566            0    -15595759   -58166.935 
   32740    8.9980475    -15600562            0    -15595760   -58166.763 
   32750    8.9637505    -15600542            0    -15595759   -58166.059 
   32760    8.9834343    -15600535            0    -15595740   -58165.653 
   32770    9.0436274    -15600535            0    -15595708   -58165.494 
   32780    9.0447719    -15600525            0    -15595698   -58165.165 
   32790    9.0375221    -15600524            0    -15595701   -58165.204 
   32800    9.0364198    -15600536            0    -15595713   -58165.675 
   32810    9.0019721    -15600536            0    -15595732     -58165.8 
   32820    8.9775228    -15600537            0    -15595746    -58165.86 
   32830    9.0033105    -15600555            0    -15595750   -58166.425 
   32840    9.0252356    -15600570            0    -15595754   -58166.909 
   32850    9.0088888    -15600570            0    -15595762   -58166.923 
   32860    8.9841745    -15600567            0    -15595772   -58166.864 
   32870    8.9745942    -15600568            0    -15595778   -58166.977 
   32880    8.9852869    -15600575            0    -15595780    -58167.28 
   32890    8.9989858    -15600579            0    -15595776    -58167.39 
   32900    9.0035413    -15600571            0    -15595766   -58167.014 
   32910    9.0019954    -15600557            0    -15595753    -58166.31 
   32920    8.9979486    -15600541            0    -15595739   -58165.458 
   32930    9.0067083    -15600531            0    -15595725   -58164.791 
   32940    9.0258714    -15600530            0    -15595713   -58164.426 
   32950    9.0530541    -15600539            0    -15595707   -58164.481 
   32960    9.0624398    -15600552            0    -15595716   -58164.741 
   32970    9.0326479    -15600562            0    -15595742   -58164.953 
   32980    9.0096055    -15600571            0    -15595763    -58165.11 
   32990    9.0141068    -15600583            0    -15595772    -58165.36 
   33000    9.0205021    -15600595            0    -15595781    -58165.62 
   33010     9.014156    -15600604            0    -15595793   -58165.757 
   33020    8.9924865    -15600606            0    -15595807   -58165.675 
   33030    8.9749275    -15600607            0    -15595817    -58165.53 
   33040    8.9736933    -15600609            0    -15595820   -58165.423 
   33050    8.9789262    -15600607            0    -15595815   -58165.151 
   33060    9.0049275    -15600604            0    -15595798   -58164.761 
   33070    9.0484667    -15600600            0    -15595771   -58164.307 
   33080    9.0590742    -15600593            0    -15595759   -58163.852 
   33090    9.0479936    -15600592            0    -15595763   -58163.629 
   33100    9.0238072    -15600590            0    -15595775   -58163.446 
   33110    8.9973017    -15600586            0    -15595784   -58163.157 
   33120    8.9828755    -15600583            0    -15595789   -58162.862 
   33130    8.9845993    -15600582            0    -15595787   -58162.677 
   33140    9.0112328    -15600591            0    -15595782   -58162.839 
   33150    9.0330925    -15600601            0    -15595780   -58163.055 
   33160    9.0290235    -15600605            0    -15595786   -58163.161 
   33170    8.9854649    -15600605            0    -15595809   -58163.216 
   33180    8.9361957    -15600605            0    -15595835    -58163.31 
   33190    8.9409768    -15600611            0    -15595839   -58163.539 
   33200    8.9642865    -15600613            0    -15595829   -58163.576 
   33210     8.978955    -15600607            0    -15595815   -58163.273 
   33220    8.9913347    -15600602            0    -15595803   -58162.915 
   33230    9.0042583    -15600600            0    -15595795    -58162.66 
   33240    9.0101433    -15600597            0    -15595789   -58162.485 
   33250    9.0315851    -15600607            0    -15595787    -58162.81 
   33260    9.0581489    -15600627            0    -15595793   -58163.607 
   33270    9.0179956    -15600629            0    -15595816   -58163.888 
   33280    8.9494382    -15600612            0    -15595836   -58163.542 
   33290    8.9573876    -15600616            0    -15595836   -58163.709 
   33300    9.0076262    -15600635            0    -15595828   -58164.302 
   33310    9.0302538    -15600642            0    -15595823   -58164.493 
   33320    9.0204275    -15600639            0    -15595825   -58164.312 
   33330    8.9898477    -15600631            0    -15595833   -58163.935 
   33340     8.948518    -15600617            0    -15595841   -58163.379 
   33350    8.9409004    -15600607            0    -15595836   -58163.006 
   33360    9.0127102    -15600618            0    -15595808   -58163.177 
   33370    9.0542256    -15600620            0    -15595788   -58163.119 
   33380    9.0323287    -15600608            0    -15595787   -58162.669 
   33390    9.0032882    -15600599            0    -15595794   -58162.354 
   33400    8.9944208    -15600600            0    -15595800   -58162.402 
   33410    9.0002979    -15600609            0    -15595806   -58162.674 
   33420    9.0051163    -15600619            0    -15595813   -58163.002 
   33430    8.9997128    -15600631            0    -15595828   -58163.442 
   33440    8.9771368    -15600644            0    -15595853   -58163.969 
   33450    8.9604308    -15600654            0    -15595872     -58164.3 
   33460    8.9756086    -15600665            0    -15595875   -58164.602 
   33470    9.0039971    -15600677            0    -15595872   -58164.858 
   33480    9.0150442    -15600680            0    -15595869   -58164.809 
   33490    8.9908499    -15600668            0    -15595870   -58164.228 
   33500     8.964696    -15600651            0    -15595866   -58163.492 
   33510    9.0007256    -15600647            0    -15595843   -58163.107 
   33520     9.058321    -15600645            0    -15595811   -58162.806 
   33530    9.0459516    -15600633            0    -15595805   -58162.301 
   33540    9.0227058    -15600626            0    -15595811   -58162.056 
   33550    9.0250442    -15600639            0    -15595823   -58162.443 
   33560      9.02693    -15600657            0    -15595839    -58163.02 
   33570    9.0037065    -15600663            0    -15595858   -58163.245 
   33580    8.9791454    -15600660            0    -15595868   -58163.216 
   33590    8.9763801    -15600661            0    -15595870   -58163.264 
   33600    8.9895988    -15600664            0    -15595866   -58163.402 
   33610    9.0029661    -15600664            0    -15595859   -58163.478 
   33620      9.01654    -15600665            0    -15595853   -58163.547 
   33630    9.0247388    -15600665            0    -15595848   -58163.563 
   33640    9.0151945    -15600659            0    -15595848   -58163.381 
   33650    9.0028022    -15600659            0    -15595854   -58163.356 
   33660    8.9955344    -15600667            0    -15595866   -58163.631 
   33670    8.9793152    -15600671            0    -15595879   -58163.836 
   33680    8.9668224    -15600671            0    -15595886   -58163.978 
   33690    8.9744756    -15600674            0    -15595885   -58164.163 
   33700    9.0061428    -15600682            0    -15595876   -58164.422 
   33710    9.0387863    -15600688            0    -15595864   -58164.591 
   33720    9.0342532    -15600681            0    -15595859   -58164.352 
   33730    8.9907697    -15600660            0    -15595862   -58163.771 
   33740    8.9621012    -15600648            0    -15595865   -58163.552 
   33750    9.0044503    -15600663            0    -15595857   -58164.246 
   33760     9.050587    -15600675            0    -15595845   -58164.793 
   33770    9.0253363    -15600657            0    -15595840   -58164.327 
   33780    8.9768158    -15600632            0    -15595841   -58163.598 
   33790     8.983723    -15600631            0    -15595837   -58163.582 
   33800    9.0369436    -15600647            0    -15595824   -58164.023 
   33810    9.0555659    -15600647            0    -15595815   -58163.958 
   33820    9.0370319    -15600641            0    -15595818   -58163.665 
   33830    9.0072605    -15600643            0    -15595836   -58163.723 
   33840    8.9761994    -15600649            0    -15595858    -58164.03 
   33850    8.9588546    -15600651            0    -15595869   -58164.245 
   33860    8.9672541    -15600653            0    -15595868   -58164.471 
   33870    9.0002328    -15600662            0    -15595859   -58164.836 
   33880    9.0296825    -15600671            0    -15595852   -58165.138 
   33890    9.0288166    -15600671            0    -15595852   -58165.131 
   33900    9.0024168    -15600663            0    -15595859   -58164.875 
   33910    8.9831905    -15600659            0    -15595865   -58164.761 
   33920    9.0035453    -15600672            0    -15595867   -58165.219 
   33930    9.0283848    -15600691            0    -15595873   -58165.845 
   33940     8.973101    -15600693            0    -15595904   -58165.973 
   33950    8.9204566    -15600687            0    -15595927   -58165.752 
   33960    8.9263648    -15600688            0    -15595924   -58165.628 
   33970    8.9687802    -15600689            0    -15595903   -58165.507 
   33980    8.9988549    -15600683            0    -15595880   -58165.185 
   33990     9.013651    -15600676            0    -15595866   -58164.965 
   34000    9.0275697    -15600675            0    -15595858   -58165.022 
   34010     9.031281    -15600676            0    -15595857   -58165.164 
   34020    9.0191174    -15600677            0    -15595864    -58165.31 
   34030    8.9954345    -15600679            0    -15595878   -58165.506 
   34040    8.9791792    -15600686            0    -15595894   -58165.856 
   34050     8.984162    -15600700            0    -15595906   -58166.361 
   34060    8.9813038    -15600707            0    -15595914   -58166.548 
   34070    8.9595454    -15600700            0    -15595918   -58166.251 
   34080    8.9499276    -15600689            0    -15595912   -58165.728 
   34090     8.987671    -15600679            0    -15595882   -58165.137 
   34100    9.0195052    -15600672            0    -15595858   -58164.652 
   34110    9.0345559    -15600670            0    -15595848   -58164.428 
   34120    9.0328222    -15600669            0    -15595848   -58164.324 
   34130    9.0185862    -15600670            0    -15595856   -58164.359 
   34140    8.9987472    -15600673            0    -15595871   -58164.515 
   34150    8.9695389    -15600672            0    -15595885   -58164.497 
   34160    8.9640625    -15600674            0    -15595890   -58164.606 
   34170    9.0067091    -15600693            0    -15595887   -58165.183 
   34180      9.03677    -15600704            0    -15595881   -58165.415 
   34190    9.0087319    -15600689            0    -15595881   -58164.775 
   34200    8.9641065    -15600667            0    -15595884   -58163.931 
   34210    8.9710538    -15600665            0    -15595877    -58163.68 
   34220    9.0369685    -15600684            0    -15595861   -58164.117 
   34230    9.0844237    -15600701            0    -15595853   -58164.541 
   34240    9.0583065    -15600699            0    -15595865   -58164.437 
   34250    8.9982059    -15600692            0    -15595890   -58164.142 
   34260    8.9748626    -15600693            0    -15595903   -58164.057 
   34270    8.9807703    -15600698            0    -15595905   -58164.114 
   34280    9.0065094    -15600709            0    -15595902   -58164.332 
   34290    9.0174381    -15600712            0    -15595900   -58164.325 
   34300    9.0033533    -15600706            0    -15595901   -58164.046 
   34310    9.0033946    -15600710            0    -15595905   -58164.167 
   34320    9.0094991    -15600723            0    -15595915   -58164.723 
   34330     8.998731    -15600737            0    -15595935   -58165.427 
   34340    8.9712582    -15600742            0    -15595955    -58165.86 
   34350    8.9453548    -15600737            0    -15595963   -58165.896 
   34360    8.9512024    -15600733            0    -15595956   -58165.935 
   34370     8.993286    -15600737            0    -15595937   -58166.128 
   34380    9.0224641    -15600737            0    -15595921   -58166.151 
   34390    9.0324359    -15600737            0    -15595917   -58166.157 
   34400    9.0370275    -15600744            0    -15595921   -58166.312 
   34410    9.0117683    -15600740            0    -15595930   -58166.161 
   34420    8.9800374    -15600731            0    -15595939   -58165.846 
   34430    8.9621224    -15600723            0    -15595940   -58165.492 
   34440    8.9650677    -15600716            0    -15595932   -58165.154 
   34450     9.001858    -15600721            0    -15595917   -58165.159 
   34460     9.035837    -15600730            0    -15595908   -58165.333 
   34470    9.0294762    -15600729            0    -15595910   -58165.205 
   34480    9.0025167    -15600719            0    -15595915   -58164.878 
   34490    8.9916064    -15600717            0    -15595918   -58164.794 
   34500    8.9926295    -15600718            0    -15595919   -58164.842 
   34510    8.9871883    -15600713            0    -15595917   -58164.681 
   34520    9.0058053    -15600715            0    -15595909   -58164.685 
   34530    9.0560568    -15600730            0    -15595897   -58164.976 
   34540    9.0746078    -15600733            0    -15595890   -58164.917 
   34550    9.0333636    -15600725            0    -15595904   -58164.563 
   34560    8.9828312    -15600725            0    -15595931   -58164.559 
   34570    8.9720102    -15600734            0    -15595946   -58164.813 
   34580    8.9666017    -15600733            0    -15595948   -58164.751 
   34590    8.9719783    -15600730            0    -15595941   -58164.548 
   34600    9.0073602    -15600734            0    -15595927   -58164.598 
   34610    9.0480118    -15600744            0    -15595915   -58164.815 
   34620    9.0536833    -15600747            0    -15595915    -58164.86 
   34630     9.026087    -15600748            0    -15595931   -58164.854 
   34640    8.9809253    -15600750            0    -15595957   -58164.905 
   34650    8.9661405    -15600755            0    -15595970   -58164.975 
   34660    8.9858913    -15600764            0    -15595968   -58165.163 
   34670    9.0132451    -15600775            0    -15595965   -58165.421 
   34680    9.0202574    -15600779            0    -15595965   -58165.451 
   34690    8.9911848    -15600767            0    -15595969   -58165.039 
   34700     8.977718    -15600763            0    -15595971   -58164.837 
   34710    9.0001188    -15600771            0    -15595968   -58165.003 
   34720     9.009936    -15600769            0    -15595961   -58164.764 
   34730    9.0149497    -15600761            0    -15595950   -58164.267 
   34740    9.0368669    -15600761            0    -15595938   -58163.981 
   34750    9.0562394    -15600764            0    -15595931     -58163.9 
   34760    9.0483128    -15600767            0    -15595938   -58163.938 
   34770    9.0055996    -15600768            0    -15595962   -58164.068 
   34780     8.967055    -15600768            0    -15595982   -58164.176 
   34790    8.9574549    -15600767            0    -15595987   -58164.245 
   34800    8.9814884    -15600774            0    -15595980   -58164.553 
   34810    9.0226626    -15600786            0    -15595971   -58165.047 
   34820    9.0352561    -15600789            0    -15595967   -58165.217 
   34830    8.9990409    -15600774            0    -15595971   -58164.799 
   34840    8.9545551    -15600756            0    -15595977   -58164.288 
   34850    8.9594744    -15600756            0    -15595975   -58164.285 
   34860    9.0237302    -15600769            0    -15595953   -58164.611 
   34870    9.0754052    -15600777            0    -15595934   -58164.839 
   34880    9.0621755    -15600772            0    -15595935   -58164.675 
   34890    8.9988593    -15600754            0    -15595951   -58164.162 
   34900    8.9544708    -15600744            0    -15595965    -58163.85 
   34910    8.9599064    -15600748            0    -15595966   -58163.914 
   34920    8.9859216    -15600751            0    -15595956   -58163.952 
   34930    9.0248607    -15600756            0    -15595940   -58164.039 
   34940    9.0736525    -15600773            0    -15595930   -58164.506 
   34950    9.0892382    -15600791            0    -15595940   -58165.073 
   34960    9.0100627    -15600785            0    -15595976   -58164.968 
   34970    8.9646687    -15600774            0    -15595989   -58164.593 
   34980    8.9951545    -15600788            0    -15595987   -58164.949 
   34990    9.0349149    -15600806            0    -15595984   -58165.374 
   35000    9.0088344    -15600796            0    -15595988    -58164.89 
   35010    8.9491987    -15600770            0    -15595994   -58163.906 
   35020    8.9489591    -15600763            0    -15595987   -58163.564 
   35030    9.0200628    -15600781            0    -15595967   -58164.035 
   35040    9.0603706    -15600789            0    -15595954   -58164.272 
   35050    9.0407636    -15600781            0    -15595956   -58164.011 
   35060    9.0249968    -15600786            0    -15595970    -58164.12 
   35070    9.0154223    -15600800            0    -15595988   -58164.493 
   35080    8.9981874    -15600806            0    -15596004   -58164.628 
   35090    8.9937117    -15600810            0    -15596010   -58164.721 
   35100    9.0070609    -15600819            0    -15596012   -58165.006 
   35110    9.0215261    -15600830            0    -15596015   -58165.343 
   35120    9.0105731    -15600831            0    -15596022   -58165.372 
   35130    8.9786302    -15600823            0    -15596031   -58165.115 
   35140    8.9564715    -15600815            0    -15596035   -58164.905 
   35150    8.9698811    -15600812            0    -15596025     -58164.9 
   35160    9.0466175    -15600822            0    -15595994   -58165.202 
   35170    9.0823523    -15600824            0    -15595977   -58165.304 
   35180    9.0249775    -15600800            0    -15595983   -58164.534 
   35190    8.9611611    -15600775            0    -15595992   -58163.735 
   35200    8.9766831    -15600782            0    -15595991   -58163.986 
   35210    9.0382291    -15600808            0    -15595984   -58164.845 
   35220    9.0556659    -15600818            0    -15595985   -58165.198 
   35230    9.0093483    -15600814            0    -15596006   -58165.127 
   35240    8.9573781    -15600816            0    -15596036   -58165.213 
   35250    8.9702884    -15600831            0    -15596043   -58165.636 
   35260    9.0052516    -15600847            0    -15596041   -58166.119 
   35270    9.0176857    -15600853            0    -15596040   -58166.234 
   35280    9.0087493    -15600851            0    -15596043   -58166.061 
   35290    8.9776602    -15600840            0    -15596049   -58165.575 
   35300    8.9623855    -15600833            0    -15596050   -58165.229 
   35310    8.9851912    -15600834            0    -15596039   -58165.067 
   35320    9.0156289    -15600824            0    -15596013   -58164.559 
   35330    9.0282131    -15600812            0    -15595994   -58164.013 
   35340    9.0325553    -15600808            0    -15595988   -58163.766 
   35350    9.0088842    -15600798            0    -15595990   -58163.388 
   35360    8.9746677    -15600783            0    -15595994   -58162.966 
   35370    8.9741125    -15600780            0    -15595991   -58162.941 
   35380     9.012922    -15600786            0    -15595976   -58163.155 
   35390    9.0757269    -15600796            0    -15595952   -58163.477 
   35400     9.108063    -15600807            0    -15595946   -58163.855 
   35410    9.0791724    -15600813            0    -15595968   -58164.183 
   35420    9.0438497    -15600821            0    -15595995   -58164.557 
   35430     9.023486    -15600825            0    -15596009   -58164.689 
   35440    8.9805317    -15600814            0    -15596021   -58164.331 
   35450    8.9470175    -15600801            0    -15596026   -58163.912 
   35460    8.9719522    -15600806            0    -15596018   -58164.064 
   35470    9.0322724    -15600821            0    -15596001   -58164.584 
   35480    9.0723272    -15600834            0    -15595993    -58165.04 
   35490    9.0546306    -15600835            0    -15596003   -58165.089 
   35500    8.9919401    -15600824            0    -15596025   -58164.796 
   35510    8.9636505    -15600822            0    -15596038    -58164.79 
   35520    8.9818492    -15600831            0    -15596038   -58165.197 
   35530     8.996736    -15600835            0    -15596033   -58165.394 
   35540    8.9927458    -15600827            0    -15596028   -58165.179 
   35550    9.0032258    -15600825            0    -15596021   -58165.087 
   35560    9.0347445    -15600835            0    -15596013   -58165.314 
   35570    9.0504129    -15600841            0    -15596011   -58165.473 
   35580    9.0052982    -15600835            0    -15596029   -58165.307 
   35590    8.9381585    -15600827            0    -15596057   -58165.191 
   35600    8.9326748    -15600831            0    -15596064   -58165.417 
   35610    8.9788846    -15600845            0    -15596053   -58165.918 
   35620    9.0281598    -15600856            0    -15596038   -58166.266 
   35630    9.0346399    -15600852            0    -15596030   -58166.088 
   35640    8.9969822    -15600832            0    -15596031    -58165.39 
   35650    8.9750605    -15600820            0    -15596030   -58164.947 
   35660    9.0235866    -15600837            0    -15596021   -58165.452 
   35670    9.1075125    -15600867            0    -15596006    -58166.44 
   35680     9.115479    -15600878            0    -15596013   -58166.941 
   35690    9.0215963    -15600862            0    -15596047    -58166.68 
   35700    8.9561888    -15600845            0    -15596065   -58166.243 
   35710    8.9603473    -15600848            0    -15596066   -58166.304 
   35720    8.9946057    -15600856            0    -15596056   -58166.436 
   35730    9.0094976    -15600851            0    -15596043   -58166.085 
   35740    9.0124955    -15600841            0    -15596032   -58165.551 
   35750    9.0233967    -15600838            0    -15596023   -58165.246 
   35760    9.0367254    -15600842            0    -15596019   -58165.183 
   35770    9.0328904    -15600845            0    -15596024    -58165.19 
   35780    9.0021379    -15600849            0    -15596045   -58165.303 
   35790    8.9798852    -15600862            0    -15596069   -58165.724 
   35800    8.9978641    -15600883            0    -15596081   -58166.323 
   35810    9.0018188    -15600891            0    -15596087   -58166.367 
   35820    8.9731453    -15600878            0    -15596089   -58165.687 
   35830    8.9615521    -15600867            0    -15596085   -58165.045 
   35840    8.9912443    -15600869            0    -15596071   -58164.859 
   35850    9.0209474    -15600871            0    -15596056   -58164.756 
   35860    9.0200138    -15600864            0    -15596050   -58164.496 
   35870    9.0038126    -15600855            0    -15596050   -58164.221 
   35880    9.0060296    -15600857            0    -15596051   -58164.306 
   35890    9.0274623    -15600870            0    -15596053   -58164.772 
   35900    9.0265907    -15600877            0    -15596059   -58165.024 
   35910    8.9965537    -15600871            0    -15596070    -58164.87 
   35920    8.9675663    -15600864            0    -15596078   -58164.567 
   35930    8.9686142    -15600864            0    -15596078   -58164.426 
   35940    9.0103747    -15600876            0    -15596067   -58164.594 
   35950    9.0572174    -15600881            0    -15596048   -58164.518 
   35960    9.0867665    -15600876            0    -15596027   -58164.044 
   35970    9.0807506    -15600867            0    -15596020   -58163.429 
   35980    9.0298428    -15600857            0    -15596038   -58162.994 
   35990     8.986191    -15600863            0    -15596068   -58163.301 
   36000    9.0038465    -15600887            0    -15596082   -58164.163 
   36010    9.0089437    -15600897            0    -15596089   -58164.569 
   36020    8.9838227    -15600890            0    -15596096    -58164.35 
   36030    8.9851026    -15600893            0    -15596098   -58164.385 
   36040    9.0212206    -15600911            0    -15596097   -58164.917 
   36050    9.0444113    -15600927            0    -15596100   -58165.441 
   36060    9.0127627    -15600931            0    -15596121   -58165.644 
   36070    8.9562325    -15600927            0    -15596147   -58165.554 
   36080    8.9320123    -15600920            0    -15596153   -58165.248 
   36090    8.9429628    -15600915            0    -15596142   -58164.905 
   36100    8.9778585    -15600914            0    -15596123   -58164.665 
   36110    9.0085109    -15600916            0    -15596108   -58164.534 
   36120    9.0036302    -15600906            0    -15596101     -58164.1 
   36130    8.9799171    -15600888            0    -15596096   -58163.459 
   36140     8.982135    -15600879            0    -15596086    -58163.15 
   36150     9.023741    -15600887            0    -15596071   -58163.401 
   36160     9.055827    -15600895            0    -15596062   -58163.713 
   36170    9.0320006    -15600888            0    -15596067   -58163.535 
   36180    8.9848353    -15600879            0    -15596084   -58163.371 
   36190    8.9606936    -15600890            0    -15596108   -58163.843 
   36200    8.9633319    -15600912            0    -15596129   -58164.687 
   36210    8.9789705    -15600933            0    -15596141   -58165.411 
   36220    8.9871226    -15600943            0    -15596147    -58165.73 
   36230    8.9801437    -15600946            0    -15596154    -58165.72 
   36240    8.9477055    -15600945            0    -15596169   -58165.607 
   36250    8.9234274    -15600943            0    -15596180   -58165.494 
   36260    8.9425153    -15600944            0    -15596172   -58165.407 
   36270     8.980842    -15600942            0    -15596149    -58165.02 
   36280    8.9979615    -15600929            0    -15596127   -58164.258 
   36290    9.0090409    -15600920            0    -15596113   -58163.628 
   36300    9.0162228    -15600914            0    -15596103   -58163.207 
   36310    9.0204972    -15600911            0    -15596097   -58162.991 
   36320    9.0225667    -15600911            0    -15596096   -58162.941 
   36330     9.000414    -15600904            0    -15596101    -58162.71 
   36340    8.9736096    -15600897            0    -15596108   -58162.557 
   36350    8.9761375    -15600903            0    -15596113   -58162.868 
   36360     9.009626    -15600921            0    -15596113   -58163.548 
   36370    9.0420849    -15600940            0    -15596115   -58164.196 
   36380    9.0171185    -15600942            0    -15596129   -58164.234 
   36390    8.9542604    -15600928            0    -15596150   -58163.818 
   36400    8.9378747    -15600926            0    -15596156   -58163.744 
   36410    8.9893303    -15600944            0    -15596147   -58164.288 
   36420    9.0400402    -15600958            0    -15596134   -58164.643 
   36430    9.0284709    -15600948            0    -15596129   -58164.178 
   36440    8.9896992    -15600929            0    -15596131   -58163.496 
   36450    8.9830581    -15600927            0    -15596133   -58163.436 
   36460     9.016158    -15600941            0    -15596129   -58163.947 
   36470    9.0447278    -15600954            0    -15596127   -58164.393 
   36480    9.0289064    -15600954            0    -15596136    -58164.43 
   36490    8.9857692    -15600949            0    -15596153   -58164.324 
   36500    8.9762406    -15600956            0    -15596166   -58164.668 
   36510    8.9763231    -15600962            0    -15596172   -58164.924 
   36520     8.940729    -15600942            0    -15596170   -58164.294 
   36530     8.941462    -15600922            0    -15596150   -58163.581 
   36540    8.9956964    -15600923            0    -15596122   -58163.426 
   36550    9.0313981    -15600931            0    -15596111   -58163.509 
   36560    9.0262959    -15600928            0    -15596111   -58163.268 
   36570    9.0000229    -15600920            0    -15596117   -58162.905 
   36580    8.9994148    -15600927            0    -15596124   -58163.046 
   36590    9.0218576    -15600947            0    -15596132   -58163.664 
   36600    9.0162545    -15600961            0    -15596149   -58164.108 
   36610    8.9811133    -15600962            0    -15596169   -58164.201 
   36620    8.9597051    -15600962            0    -15596180   -58164.172 
   36630    8.9641396    -15600962            0    -15596178   -58164.172 
   36640     8.991924    -15600968            0    -15596169   -58164.338 
   36650    9.0096579    -15600970            0    -15596161   -58164.372 
   36660    9.0046959    -15600964            0    -15596158   -58164.167 
   36670    9.0109259    -15600966            0    -15596157   -58164.209 
   36680    9.0333681    -15600980            0    -15596159     -58164.6 
   36690    9.0171501    -15600978            0    -15596166   -58164.516 
   36700    8.9755603    -15600963            0    -15596173   -58163.991 
   36710     8.976207    -15600963            0    -15596172   -58163.893 
   36720    9.0102837    -15600976            0    -15596167   -58164.163 
   36730    9.0172781    -15600977            0    -15596165   -58164.048 
   36740    8.9938026    -15600966            0    -15596166    -58163.52 
   36750    8.9822667    -15600959            0    -15596165   -58163.126 
   36760    8.9905633    -15600959            0    -15596161   -58162.995 
   36770    9.0123749    -15600968            0    -15596158   -58163.174 
   36780    9.0346121    -15600980            0    -15596159   -58163.543 
   36790    9.0191489    -15600979            0    -15596166   -58163.476 
   36800    8.9709204    -15600961            0    -15596174   -58162.887 
   36810    8.9562295    -15600953            0    -15596173   -58162.575 
   36820    8.9932335    -15600961            0    -15596161   -58162.765 
   36830    9.0474061    -15600974            0    -15596145   -58163.149 
   36840    9.0718113    -15600981            0    -15596140   -58163.415 
   36850    9.0321641    -15600975            0    -15596154   -58163.329 
   36860    8.9630459    -15600973            0    -15596189   -58163.473 
   36870    8.9640102    -15600986            0    -15596202   -58164.015 
   36880    8.9871838    -15600996            0    -15596200    -58164.42 
   36890    8.9872626    -15600991            0    -15596195   -58164.313 
   36900    8.9984875    -15600988            0    -15596186    -58164.27 
   36910    9.0294182    -15600994            0    -15596176   -58164.521 
   36920    9.0405194    -15600996            0    -15596171   -58164.637 
   36930     9.019115    -15600990            0    -15596177   -58164.552 
   36940    8.9911988    -15600992            0    -15596193   -58164.695 
   36950    8.9824381    -15601008            0    -15596214   -58165.276 
   36960    8.9794828    -15601022            0    -15596230   -58165.763 
   36970    8.9669524    -15601023            0    -15596237   -58165.805 
   36980    8.9753707    -15601025            0    -15596235   -58165.879 
   36990    8.9926401    -15601026            0    -15596226   -58165.849 
   37000     8.983457    -15601009            0    -15596215   -58165.232 
   37010    8.9807862    -15600992            0    -15596199   -58164.572 
   37020    9.0144162    -15600996            0    -15596185   -58164.629 
   37030      9.04783    -15601012            0    -15596183   -58165.186 
   37040    9.0461396    -15601019            0    -15596192   -58165.504 
   37050    9.0090252    -15601016            0    -15596208   -58165.507 
   37060    8.9743414    -15601013            0    -15596224   -58165.517 
   37070     8.951173    -15601007            0    -15596230   -58165.429 
   37080    8.9569285    -15601004            0    -15596224   -58165.374 
   37090     9.006928    -15601012            0    -15596205   -58165.623 
   37100    9.0507585    -15601021            0    -15596190    -58165.86 
   37110    9.0472823    -15601018            0    -15596190    -58165.74 
   37120    8.9979282    -15601002            0    -15596200   -58165.232 
   37130    8.9691206    -15600996            0    -15596209   -58165.131 
   37140    8.9929267    -15601012            0    -15596212   -58165.739 
   37150    9.0111823    -15601023            0    -15596213   -58166.138 
   37160    8.9848828    -15601015            0    -15596220   -58165.861 
   37170    8.9619877    -15601011            0    -15596228   -58165.641 
   37180    8.9770115    -15601020            0    -15596229   -58165.821 
   37190    8.9967454    -15601024            0    -15596223   -58165.877 
   37200    8.9981977    -15601014            0    -15596212   -58165.498 
   37210    9.0017192    -15601003            0    -15596199   -58165.039 
   37220    9.0241853    -15601001            0    -15596185   -58164.878 
   37230    9.0472635    -15601005            0    -15596177   -58164.958 
   37240    9.0483958    -15601009            0    -15596180   -58165.126 
   37250    9.0168117    -15601012            0    -15596200   -58165.363 
   37260    8.9752623    -15601015            0    -15596225   -58165.624 
   37270    8.9596583    -15601015            0    -15596234   -58165.716 
   37280    8.9744011    -15601019            0    -15596230   -58165.888 
   37290    9.0140202    -15601033            0    -15596222   -58166.338 
   37300    9.0279434    -15601037            0    -15596219   -58166.458 
   37310     9.001607    -15601026            0    -15596222   -58166.042 
   37320    8.9810577    -15601019            0    -15596226   -58165.697 
   37330    8.9789665    -15601018            0    -15596226   -58165.514 
   37340    8.9908116    -15601015            0    -15596217   -58165.253 
   37350    9.0273851    -15601015            0    -15596197   -58165.034 
   37360    9.0677218    -15601021            0    -15596182   -58165.061 
   37370    9.0719309    -15601025            0    -15596184   -58165.092 
   37380    9.0232184    -15601020            0    -15596204   -58164.869 
   37390    8.9667113    -15601009            0    -15596223   -58164.501 
   37400    8.9600291    -15601009            0    -15596227   -58164.469 
   37410    9.0004329    -15601024            0    -15596221   -58164.914 
   37420    9.0318229    -15601036            0    -15596216   -58165.221 
   37430    9.0230417    -15601033            0    -15596218   -58165.083 
   37440    9.0056914    -15601034            0    -15596227   -58165.041 
   37450    8.9932178    -15601045            0    -15596245   -58165.367 
   37460    8.9622015    -15601054            0    -15596271   -58165.639 
   37470    8.9504636    -15601063            0    -15596286   -58165.789 
   37480    8.9678994    -15601071            0    -15596285   -58165.851 
   37490    8.9794172    -15601071            0    -15596279   -58165.642 
   37500    8.9904996    -15601070            0    -15596271   -58165.459 
   37510      9.00519    -15601072            0    -15596266   -58165.411 
   37520    9.0011409    -15601066            0    -15596262   -58165.113 
   37530    8.9837247    -15601053            0    -15596259   -58164.548 
   37540    8.9773054    -15601041            0    -15596250    -58163.97 
   37550     8.999346    -15601034            0    -15596231   -58163.557 
   37560    9.0340933    -15601031            0    -15596210    -58163.31 
   37570    9.0415045    -15601027            0    -15596202   -58163.119 
   37580     9.036871    -15601028            0    -15596205   -58163.177 
   37590    9.0388624    -15601037            0    -15596213   -58163.559 
   37600    9.0303651    -15601044            0    -15596225   -58163.922 
   37610    9.0065781    -15601045            0    -15596238   -58164.107 
   37620    8.9919162    -15601048            0    -15596250   -58164.366 
   37630    8.9860664    -15601052            0    -15596256   -58164.655 
   37640    8.9922674    -15601057            0    -15596258   -58165.035 
   37650    9.0126612    -15601068            0    -15596259   -58165.569 
   37660    9.0215944    -15601077            0    -15596263   -58165.954 
   37670    8.9847696    -15601075            0    -15596280   -58165.926 
   37680    8.9270834    -15601066            0    -15596302   -58165.622 
   37690    8.9230839    -15601066            0    -15596304   -58165.612 
   37700    8.9814566    -15601080            0    -15596287    -58166.06 
   37710    9.0361506    -15601091            0    -15596268   -58166.422 
   37720     9.026473    -15601080            0    -15596263   -58166.112 
   37730    8.9877606    -15601061            0    -15596265   -58165.472 
   37740    8.9849824    -15601058            0    -15596263   -58165.331 
   37750    9.0116289    -15601067            0    -15596258   -58165.596 
   37760    9.0272184    -15601072            0    -15596254   -58165.734 
   37770    9.0188487    -15601069            0    -15596256   -58165.654 
   37780     8.989564    -15601069            0    -15596271   -58165.662 
   37790    8.9626462    -15601076            0    -15596293   -58165.951 
   37800    8.9755974    -15601094            0    -15596304    -58166.57 
   37810    9.0061949    -15601116            0    -15596309   -58167.192 
   37820    8.9903007    -15601113            0    -15596315   -58166.995 
   37830    8.9631166    -15601102            0    -15596318   -58166.504 
   37840    8.9780915    -15601104            0    -15596312   -58166.383 
   37850    9.0308455    -15601113            0    -15596294   -58166.471 
   37860    9.0662328    -15601115            0    -15596277   -58166.341 
   37870    9.0363987    -15601098            0    -15596276   -58165.673 
   37880    8.9840126    -15601079            0    -15596285   -58165.082 
   37890    8.9731674    -15601085            0    -15596296   -58165.377 
   37900    8.9832294    -15601103            0    -15596309   -58166.165 
   37910    8.9748074    -15601117            0    -15596327   -58166.821 
   37920    8.9558554    -15601124            0    -15596344    -58167.18 
   37930    8.9450629    -15601124            0    -15596350   -58167.226 
   37940    8.9465823    -15601115            0    -15596340   -58166.866 
   37950     8.974378    -15601102            0    -15596313   -58166.253 
   37960    9.0056121    -15601099            0    -15596293   -58165.931 
   37970    9.0341891    -15601108            0    -15596287   -58166.066 
   37980    9.0345344    -15601112            0    -15596290   -58166.072 
   37990    8.9965908    -15601103            0    -15596302   -58165.711 
   38000    8.9636942    -15601095            0    -15596312   -58165.422 
   38010    8.9709954    -15601101            0    -15596313   -58165.544 
   38020    9.0017724    -15601109            0    -15596305   -58165.761 
   38030    9.0241584    -15601107            0    -15596291   -58165.622 
   38040    9.0356107    -15601098            0    -15596276   -58165.211 
   38050    9.0395519    -15601087            0    -15596263   -58164.757 
   38060    9.0488284    -15601084            0    -15596255   -58164.606 
   38070    9.0510012    -15601088            0    -15596257   -58164.782 
   38080    9.0016245    -15601084            0    -15596280   -58164.898 
   38090    8.9581648    -15601084            0    -15596303   -58165.203 
   38100    8.9757762    -15601100            0    -15596310   -58165.915 
   38110    9.0039565    -15601114            0    -15596309   -58166.474 
   38120    9.0151913    -15601119            0    -15596308    -58166.71 
   38130    9.0263761    -15601129            0    -15596311   -58167.096 
   38140    9.0141306    -15601137            0    -15596326   -58167.518 
   38150    8.9664887    -15601139            0    -15596354   -58167.756 
   38160    8.9539453    -15601146            0    -15596368   -58168.028 
   38170    8.9747344    -15601157            0    -15596367   -58168.224 
   38180    8.9782558    -15601151            0    -15596360   -58167.857 
   38190    8.9692845    -15601136            0    -15596349   -58167.128 
   38200    8.9649364    -15601119            0    -15596334   -58166.377 
   38210    8.9744349    -15601110            0    -15596320   -58165.935 
   38220    9.0012005    -15601114            0    -15596310    -58165.98 
   38230    9.0219216    -15601120            0    -15596305   -58166.129 
   38240    9.0108664    -15601114            0    -15596305   -58165.958 
   38250    8.9896934    -15601105            0    -15596308   -58165.709 
   38260    8.9969193    -15601110            0    -15596308   -58165.839 
   38270    9.0023907    -15601112            0    -15596307   -58165.848 
   38280    8.9945952    -15601104            0    -15596304   -58165.568 
   38290    9.0039469    -15601101            0    -15596296    -58165.44 
   38300    9.0384269    -15601107            0    -15596284   -58165.674 
   38310    9.0661915    -15601117            0    -15596278    -58166.07 
   38320    9.0547886    -15601123            0    -15596290   -58166.419 
   38330    9.0171896    -15601129            0    -15596317   -58166.831 
   38340    9.0028415    -15601140            0    -15596335   -58167.319 
   38350    9.0148187    -15601156            0    -15596345   -58167.873 
   38360    9.0077294    -15601161            0    -15596354   -58167.999 
   38370    8.9627926    -15601146            0    -15596363   -58167.384 
   38380    8.9457998    -15601135            0    -15596361   -58166.819 
   38390    8.9841924    -15601139            0    -15596344   -58166.584 
   38400    9.0184213    -15601136            0    -15596323   -58166.105 
   38410    9.0257594    -15601130            0    -15596313   -58165.604 
   38420      9.04008    -15601137            0    -15596313   -58165.604 
   38430    9.0440824    -15601148            0    -15596321   -58165.733 
   38440    9.0190722    -15601148            0    -15596335   -58165.565 
   38450    8.9902254    -15601145            0    -15596347   -58165.235 
   38460    8.9609197    -15601134            0    -15596352   -58164.655 
   38470    8.9641932    -15601130            0    -15596346   -58164.333 
   38480    9.0187973    -15601147            0    -15596334   -58164.716 
   38490     9.066373    -15601167            0    -15596328   -58165.232 
   38500     9.035948    -15601160            0    -15596337    -58164.91 
   38510    8.9749854    -15601139            0    -15596349   -58164.147 
   38520    8.9784391    -15601142            0    -15596350   -58164.124 
   38530    9.0153827    -15601158            0    -15596347   -58164.583 
   38540    9.0202956    -15601162            0    -15596348   -58164.669 
   38550    9.0117412    -15601163            0    -15596353   -58164.676 
   38560    9.0109963    -15601171            0    -15596362   -58164.903 
   38570    8.9862782    -15601171            0    -15596375   -58164.868 
   38580    8.9511089    -15601165            0    -15596388   -58164.686 
   38590    8.9654587    -15601176            0    -15596392   -58165.097 
   38600    9.0134769    -15601195            0    -15596384    -58165.71 
   38610    9.0503797    -15601199            0    -15596369   -58165.817 
   38620    9.0540743    -15601192            0    -15596360   -58165.504 
   38630    9.0225986    -15601179            0    -15596364    -58165.02 
   38640    8.9885524    -15601172            0    -15596375   -58164.821 
   38650    8.9739733    -15601176            0    -15596387   -58165.029 
   38660    8.9811155    -15601187            0    -15596394   -58165.484 
   38670    8.9890965    -15601195            0    -15596398   -58165.793 
   38680    8.9671334    -15601184            0    -15596399   -58165.447 
   38690    8.9674587    -15601174            0    -15596388   -58165.022 
   38700     9.032113    -15601183            0    -15596363   -58165.117 
   38710    9.0686949    -15601189            0    -15596349   -58165.074 
   38720    9.0450312    -15601181            0    -15596354   -58164.578 
   38730    9.0012784    -15601172            0    -15596368   -58164.034 
   38740    8.9711915    -15601169            0    -15596381   -58163.655 
   38750    8.9738833    -15601173            0    -15596384   -58163.581 
   38760    9.0038507    -15601185            0    -15596380   -58163.817 
   38770    9.0304986    -15601196            0    -15596376   -58164.041 
   38780    9.0239565    -15601195            0    -15596379   -58163.966 
   38790    8.9684367    -15601186            0    -15596400   -58163.746 
   38800     8.939684    -15601192            0    -15596421   -58164.067 
   38810    8.9749476    -15601216            0    -15596426    -58164.91 
   38820    9.0118298    -15601233            0    -15596423   -58165.496 
   38830    9.0284106    -15601241            0    -15596422   -58165.743 
   38840    9.0284687    -15601248            0    -15596429   -58165.949 
   38850     8.980185    -15601240            0    -15596448   -58165.761 
   38860    8.9247486    -15601227            0    -15596464    -58165.37 
   38870    8.9299419    -15601226            0    -15596460   -58165.311 
   38880    8.9755106    -15601228            0    -15596438   -58165.235 
   38890    8.9908723    -15601217            0    -15596419   -58164.712 
   38900    8.9790449    -15601201            0    -15596410   -58164.096 
   38910    8.9982532    -15601203            0    -15596401   -58164.041 
   38920    9.0254378    -15601210            0    -15596394   -58164.186 
   38930    9.0156931    -15601203            0    -15596392   -58163.904 
   38940    8.9906722    -15601191            0    -15596393   -58163.497 
   38950    8.9999182    -15601196            0    -15596393    -58163.64 
   38960    9.0290113    -15601211            0    -15596392   -58164.125 
   38970    9.0345754    -15601221            0    -15596399   -58164.494 
   38980    8.9952638    -15601221            0    -15596421   -58164.587 
   38990    8.9564789    -15601220            0    -15596440   -58164.592 
   39000    8.9550896    -15601223            0    -15596444   -58164.707 
   39010    8.9797168    -15601228            0    -15596436   -58164.822 
   39020    9.0105978    -15601231            0    -15596422   -58164.796 
   39030    9.0309678    -15601230            0    -15596410   -58164.661 
   39040    9.0320733    -15601226            0    -15596406   -58164.496 
   39050    9.0246351    -15601227            0    -15596411    -58164.53 
   39060    8.9963506    -15601235            0    -15596434   -58164.888 
   39070    8.9435474    -15601239            0    -15596466   -58165.128 
   39080    8.9314557    -15601239            0    -15596472   -58165.027 
   39090    8.9552203    -15601240            0    -15596461   -58164.861 
   39100    9.0022086    -15601246            0    -15596442   -58164.824 
   39110      9.04475    -15601257            0    -15596430   -58164.951 
   39120    9.0481926    -15601259            0    -15596431   -58164.871 
   39130    9.0119739    -15601252            0    -15596442   -58164.522 
   39140    8.9878004    -15601253            0    -15596456   -58164.472 
   39150    8.9858007    -15601261            0    -15596465   -58164.648 
   39160    8.9867526    -15601265            0    -15596469   -58164.705 
   39170    8.9923312    -15601268            0    -15596469   -58164.714 
   39180    9.0070077    -15601271            0    -15596464   -58164.761 
   39190    9.0287877    -15601268            0    -15596450   -58164.589 
   39200    9.0501298    -15601260            0    -15596430   -58164.228 
   39210    9.0433798    -15601248            0    -15596422   -58163.752 
   39220    9.0151852    -15601235            0    -15596424   -58163.283 
   39230    8.9905839    -15601229            0    -15596431   -58163.059 
   39240    8.9802959    -15601230            0    -15596438   -58163.089 
   39250    8.9883625    -15601237            0    -15596440   -58163.343 
   39260    9.0091943    -15601248            0    -15596440   -58163.757 
   39270    9.0323159    -15601262            0    -15596442   -58164.312 
   39280    9.0414237    -15601281            0    -15596456   -58165.037 
   39290    8.9999606    -15601286            0    -15596483   -58165.339 
   39300    8.9569413    -15601279            0    -15596499   -58165.236 
   39310    8.9713127    -15601288            0    -15596500   -58165.575 
   39320    9.0002728    -15601296            0    -15596493   -58165.919 
   39330    8.9975903    -15601287            0    -15596485   -58165.679 
   39340    8.9918272    -15601272            0    -15596473   -58165.267 
   39350    9.0182109    -15601269            0    -15596456    -58165.16 
   39360    9.0527095    -15601272            0    -15596440   -58165.174 
   39370    9.0443387    -15601263            0    -15596436   -58164.816 
   39380    9.0056148    -15601251            0    -15596445   -58164.414 
   39390    8.9508157    -15601249            0    -15596472    -58164.48 
   39400    8.9251676    -15601257            0    -15596494   -58164.893 
   39410    8.9508785    -15601270            0    -15596493   -58165.378 
   39420    8.9845286    -15601275            0    -15596480   -58165.535 
   39430    9.0072723    -15601273            0    -15596466   -58165.415 
   39440    9.0161243    -15601268            0    -15596457   -58165.268 
   39450    9.0205044    -15601268            0    -15596454   -58165.267 
   39460    9.0148508    -15601267            0    -15596456   -58165.224 
   39470    9.0040142    -15601266            0    -15596460   -58165.092 
   39480    9.0017292    -15601268            0    -15596464   -58165.021 
   39490    9.0038751    -15601272            0    -15596466   -58164.964 
   39500    8.9850643    -15601263            0    -15596468   -58164.529 
   39510    8.9527769    -15601242            0    -15596464   -58163.765 
   39520    8.9629889    -15601238            0    -15596454   -58163.527 
   39530    8.9994927    -15601245            0    -15596442   -58163.705 
   39540     9.008646    -15601242            0    -15596434     -58163.6 
   39550    9.0147276    -15601240            0    -15596429   -58163.582 
   39560    9.0339139    -15601249            0    -15596428   -58163.947 
   39570    9.0446334    -15601264            0    -15596437   -58164.528 
   39580    9.0219922    -15601278            0    -15596463   -58165.102 
   39590    8.9807752    -15601279            0    -15596486   -58165.198 
   39600    8.9587627    -15601272            0    -15596491   -58164.942 
   39610    8.9728807    -15601273            0    -15596484   -58164.976 
   39620    9.0225588    -15601288            0    -15596473   -58165.495 
   39630     9.044016    -15601293            0    -15596467   -58165.734 
   39640     9.012004    -15601281            0    -15596471   -58165.372 
   39650    8.9852949    -15601276            0    -15596481   -58165.233 
   39660    8.9845145    -15601287            0    -15596492   -58165.569 
   39670    8.9778474    -15601298            0    -15596506   -58165.913 
   39680    8.9630372    -15601306            0    -15596522   -58166.188 
   39690    8.9582329    -15601316            0    -15596535   -58166.504 
   39700     8.953764    -15601318            0    -15596539    -58166.59 
   39710    8.9702633    -15601317            0    -15596530    -58166.59 
   39720    9.0225574    -15601319            0    -15596503   -58166.628 
   39730    9.0438772    -15601312            0    -15596485    -58166.45 
   39740    9.0376827    -15601306            0    -15596483   -58166.325 
   39750    9.0262484    -15601307            0    -15596490   -58166.376 
   39760    9.0045102    -15601307            0    -15596501   -58166.375 
   39770    8.9757757    -15601303            0    -15596512   -58166.177 
   39780    8.9488407    -15601291            0    -15596515   -58165.707 
   39790     8.962912    -15601288            0    -15596505    -58165.41 
   39800    9.0102464    -15601290            0    -15596482   -58165.202 
   39810     9.017528    -15601279            0    -15596467   -58164.596 
   39820    8.9926568    -15601263            0    -15596464   -58163.906 
   39830    8.9848382    -15601256            0    -15596461    -58163.55 
   39840    9.0035302    -15601260            0    -15596455   -58163.583 
   39850    9.0416512    -15601275            0    -15596449   -58163.996 
   39860    9.0725178    -15601296            0    -15596454   -58164.652 
   39870    9.0389986    -15601302            0    -15596478   -58164.888 
   39880    8.9888331    -15601298            0    -15596501   -58164.782 
   39890    8.9803252    -15601302            0    -15596509   -58164.883 
   39900    8.9946008    -15601311            0    -15596510   -58165.164 
   39910    9.0093727    -15601318            0    -15596509   -58165.435 
   39920    9.0113208    -15601319            0    -15596510   -58165.584 
   39930    9.0025433    -15601319            0    -15596514   -58165.682 
   39940    8.9961273    -15601324            0    -15596523   -58165.927 
   39950    8.9744754    -15601325            0    -15596536   -58166.052 
   39960    8.9464526    -15601322            0    -15596548   -58166.018 
   39970    8.9504717    -15601325            0    -15596548   -58166.124 
   39980    8.9852186    -15601327            0    -15596532   -58166.142 
   39990    9.0241083    -15601324            0    -15596508   -58165.896 
   40000    9.0385203    -15601319            0    -15596496   -58165.601 
   40010    9.0375647    -15601319            0    -15596496   -58165.487 
   40020    9.0271502    -15601322            0    -15596505   -58165.535 
   40030     8.999504    -15601320            0    -15596517   -58165.447 
   40040    8.9739778    -15601314            0    -15596525   -58165.245 
   40050     8.971523    -15601313            0    -15596525   -58165.136 
   40060    9.0023445    -15601323            0    -15596519   -58165.431 
   40070    9.0449526    -15601343            0    -15596516   -58166.081 
   40080    9.0500698    -15601353            0    -15596523   -58166.413 
   40090     9.023855    -15601350            0    -15596534   -58166.348 
   40100     9.002249    -15601349            0    -15596544   -58166.297 
   40110    8.9849932    -15601346            0    -15596551   -58166.221 
   40120    8.9843464    -15601348            0    -15596553   -58166.273 
   40130    8.9969225    -15601351            0    -15596550   -58166.385 
   40140    9.0039321    -15601349            0    -15596544    -58166.25 
   40150    9.0163444    -15601343            0    -15596531   -58165.938 
   40160    9.0415523    -15601337            0    -15596512   -58165.531 
   40170    9.0401711    -15601320            0    -15596496   -58164.795 
   40180    9.0148081    -15601299            0    -15596488   -58163.967 
   40190    9.0136332    -15601292            0    -15596482   -58163.664 
   40200    9.0468331    -15601305            0    -15596476   -58163.984 
   40210    9.0521317    -15601312            0    -15596481   -58164.205 
   40220    8.9959511    -15601307            0    -15596506   -58164.121 
   40230    8.9583482    -15601308            0    -15596527   -58164.242 
   40240    8.9798316    -15601324            0    -15596532   -58164.844 
   40250    9.0124407    -15601341            0    -15596531   -58165.434 
   40260    9.0207182    -15601346            0    -15596532   -58165.663 
   40270    9.0001886    -15601342            0    -15596539   -58165.578 
   40280    8.9749377    -15601342            0    -15596552   -58165.573 
   40290    8.9664093    -15601351            0    -15596566   -58165.893 
   40300    8.9635602    -15601361            0    -15596577   -58166.229 
   40310    8.9570917    -15601363            0    -15596583    -58166.32 
   40320    8.9833945    -15601372            0    -15596578   -58166.563 
   40330    9.0343437    -15601383            0    -15596562   -58166.786 
   40340    9.0488438    -15601377            0    -15596548   -58166.441 
   40350    9.0332347    -15601365            0    -15596544   -58165.959 
   40360    9.0270986    -15601368            0    -15596550    -58166.05 
   40370    9.0189776    -15601383            0    -15596570   -58166.651 
   40380     8.992028    -15601395            0    -15596596   -58167.172 
   40390    8.9614042    -15601391            0    -15596609   -58167.059 
   40400     8.935923    -15601376            0    -15596607   -58166.467 
   40410    8.9559607    -15601371            0    -15596591   -58166.217 
   40420    9.0107066    -15601382            0    -15596573   -58166.513 
   40430    9.0448082    -15601392            0    -15596565   -58166.824 
   40440    9.0295534    -15601387            0    -15596569    -58166.66 
   40450    8.9942716    -15601378            0    -15596578    -58166.32 
   40460    8.9833438    -15601381            0    -15596586   -58166.331 
   40470    8.9899793    -15601388            0    -15596590   -58166.561 
   40480    8.9982918    -15601395            0    -15596593   -58166.813 
   40490    9.0001802    -15601401            0    -15596598    -58167.04 
   40500    8.9703026    -15601395            0    -15596607   -58166.905 
   40510    8.9322438    -15601379            0    -15596612   -58166.459 
   40520    8.9372149    -15601369            0    -15596599   -58166.061 
   40530    8.9883336    -15601369            0    -15596572   -58165.903 
   40540    9.0314229    -15601375            0    -15596555   -58165.965 
   40550    9.0604839    -15601386            0    -15596551    -58166.31 
   40560    9.0546614    -15601394            0    -15596562   -58166.655 
   40570    9.0016964    -15601388            0    -15596584   -58166.626 
   40580    8.9509345    -15601375            0    -15596598   -58166.347 
   40590    8.9521446    -15601373            0    -15596596   -58166.361 
   40600    8.9884954    -15601380            0    -15596583   -58166.525 
   40610    9.0161967    -15601381            0    -15596569   -58166.462 
   40620    9.0255024    -15601379            0    -15596562   -58166.286 
   40630    9.0204733    -15601376            0    -15596562   -58166.111 
   40640    9.0202103    -15601380            0    -15596566   -58166.173 
   40650    9.0153493    -15601387            0    -15596576   -58166.324 
   40660    8.9791051    -15601384            0    -15596592   -58166.171 
   40670    8.9396268    -15601381            0    -15596610   -58166.091 
   40680    8.9261959    -15601396            0    -15596632   -58166.623 
   40690    8.9256953    -15601420            0    -15596656   -58167.419 
   40700    8.9438524    -15601438            0    -15596665   -58167.954 
   40710    8.9731544    -15601446            0    -15596657   -58168.085 
   40720    9.0022994    -15601442            0    -15596638   -58167.744 
   40730    9.0204827    -15601431            0    -15596617   -58167.156 
   40740    9.0144614    -15601417            0    -15596606   -58166.538 
   40750    8.9869085    -15601399            0    -15596603   -58165.813 
   40760    8.9809713    -15601391            0    -15596598   -58165.445 
   40770    8.9981837    -15601394            0    -15596591   -58165.437 
   40780    8.9951504    -15601386            0    -15596585   -58165.143 
   40790    8.9924904    -15601378            0    -15596579   -58164.838 
   40800    9.0248438    -15601388            0    -15596571   -58165.083 
   40810    9.0662895    -15601408            0    -15596570   -58165.688 
   40820    9.0526512    -15601421            0    -15596590   -58166.098 
   40830    8.9828512    -15601421            0    -15596627   -58166.115 
   40840    8.9691613    -15601422            0    -15596635   -58166.044 
   40850    8.9927276    -15601432            0    -15596632    -58166.25 
   40860    9.0139805    -15601438            0    -15596627   -58166.313 
   40870    9.0067581    -15601431            0    -15596624     -58165.9 
   40880    8.9878071    -15601418            0    -15596621   -58165.249 
   40890    8.9757499    -15601404            0    -15596614   -58164.559 
   40900    8.9912713    -15601395            0    -15596597   -58164.089 
   40910    9.0368854    -15601401            0    -15596578   -58164.135 
   40920    9.0782061    -15601417            0    -15596572   -58164.601 
   40930    9.0676071    -15601424            0    -15596584   -58164.874 
   40940    9.0147404    -15601417            0    -15596606   -58164.723 
   40950    8.9714725    -15601405            0    -15596617   -58164.328 
   40960     8.970481    -15601403            0    -15596616   -58164.318 
   40970    9.0132697    -15601419            0    -15596609   -58164.917 
   40980    9.0491192    -15601434            0    -15596604   -58165.527 
   40990    9.0438642    -15601439            0    -15596613   -58165.799 
   41000    9.0025746    -15601439            0    -15596634   -58165.876 
   41010    8.9731691    -15601442            0    -15596653    -58166.03 
   41020    8.9875112    -15601454            0    -15596658    -58166.48 
   41030    9.0056766    -15601464            0    -15596658   -58166.844 
   41040    9.0076746    -15601466            0    -15596658   -58166.938 
   41050    9.0012183    -15601464            0    -15596660   -58166.876 
   41060    8.9874347    -15601458            0    -15596662   -58166.623 
   41070    8.9844035    -15601454            0    -15596659    -58166.33 
   41080    8.9967279    -15601445            0    -15596644   -58165.788 
   41090    9.0309266    -15601434            0    -15596614   -58165.072 
   41100    9.0469723    -15601426            0    -15596598   -58164.589 
   41110     9.032563    -15601418            0    -15596597   -58164.242 
   41120     9.009159    -15601412            0    -15596604   -58164.119 
   41130    9.0061474    -15601421            0    -15596614   -58164.493 
   41140    9.0165354    -15601440            0    -15596628   -58165.195 
   41150    8.9939881    -15601447            0    -15596647   -58165.492 
   41160    8.9636026    -15601446            0    -15596662   -58165.461 
   41170    8.9769371    -15601455            0    -15596664   -58165.704 
   41180    9.0001562    -15601465            0    -15596661   -58165.923 
   41190    8.9858024    -15601455            0    -15596659   -58165.515 
   41200    8.9519964    -15601432            0    -15596654    -58164.68 
   41210    8.9702615    -15601428            0    -15596640   -58164.494 
   41220    9.0308606    -15601445            0    -15596626   -58165.083 
   41230    9.0555483    -15601455            0    -15596623   -58165.514 
   41240     9.033409    -15601453            0    -15596632   -58165.555 
   41250    9.0048936    -15601452            0    -15596646   -58165.592 
   41260    8.9859465    -15601452            0    -15596656   -58165.615 
   41270     8.984243    -15601454            0    -15596659   -58165.691 
   41280    8.9992601    -15601460            0    -15596657   -58165.906 
   41290    8.9990671    -15601458            0    -15596655   -58165.844 
   41300    8.9881001    -15601450            0    -15596653   -58165.529 
   41310     8.995429    -15601449            0    -15596649   -58165.387 
   41320    9.0321557    -15601465            0    -15596644   -58165.739 
   41330    9.0607203    -15601484            0    -15596648   -58166.251 
   41340    9.0372753    -15601486            0    -15596663   -58166.238 
   41350    8.9907914    -15601471            0    -15596673   -58165.596 
   41360    8.9620798    -15601456            0    -15596673   -58164.834 
   41370    8.9812424    -15601458            0    -15596665   -58164.578 
   41380    9.0334172    -15601474            0    -15596653   -58164.794 
   41390    9.0425751    -15601474            0    -15596648   -58164.609 
   41400    8.9958547    -15601455            0    -15596654   -58163.892 
   41410    8.9766576    -15601451            0    -15596660   -58163.756 
   41420    9.0006089    -15601466            0    -15596663   -58164.293 
   41430    9.0111827    -15601475            0    -15596666   -58164.682 
   41440    8.9917223    -15601474            0    -15596676   -58164.783 
   41450    8.9718438    -15601477            0    -15596689    -58164.98 
   41460    8.9740094    -15601487            0    -15596698   -58165.388 
   41470    8.9774872    -15601493            0    -15596702   -58165.606 
   41480     8.983848    -15601494            0    -15596700   -58165.674 
   41490    9.0116281    -15601499            0    -15596690    -58165.86 
   41500    9.0330013    -15601496            0    -15596675   -58165.798 
   41510    9.0214575    -15601479            0    -15596664    -58165.24 
   41520    9.0020131    -15601458            0    -15596654   -58164.584 
   41530    9.0157573    -15601452            0    -15596640   -58164.372 
   41540    9.0533787    -15601457            0    -15596625   -58164.524 
   41550    9.0692975    -15601459            0    -15596619   -58164.618 
   41560    9.0354959    -15601455            0    -15596633    -58164.54 
   41570    8.9835276    -15601458            0    -15596664   -58164.764 
   41580    8.9863885    -15601475            0    -15596679   -58165.366 
   41590    8.9983579    -15601486            0    -15596684   -58165.725 
   41600    8.9944144    -15601486            0    -15596686   -58165.707 
   41610    8.9942552    -15601486            0    -15596686   -58165.693 
   41620    9.0117388    -15601493            0    -15596684   -58165.956 
   41630    9.0362703    -15601507            0    -15596684   -58166.441 
   41640    9.0210659    -15601511            0    -15596697   -58166.709 
   41650    8.9749513    -15601512            0    -15596723   -58166.928 
   41660    8.9675018    -15601524            0    -15596738   -58167.433 
   41670     8.978234    -15601533            0    -15596741   -58167.773 
   41680    8.9716739    -15601526            0    -15596738   -58167.495 
   41690    8.9776679    -15601517            0    -15596726   -58167.042 
   41700    9.0153739    -15601518            0    -15596707   -58166.833 
   41710    9.0275962    -15601512            0    -15596694    -58166.45 
   41720    9.0091808    -15601500            0    -15596692   -58165.994 
   41730    9.0103391    -15601501            0    -15596692    -58166.08 
   41740    9.0389759    -15601518            0    -15596695   -58166.744 
   41750    9.0448772    -15601531            0    -15596704   -58167.217 
   41760    9.0013196    -15601523            0    -15596719   -58166.963 
   41770    8.9614549    -15601511            0    -15596729   -58166.486 
   41780    8.9606896    -15601509            0    -15596727   -58166.216 
   41790    8.9827351    -15601510            0    -15596716       -58166 
   41800     9.011384    -15601511            0    -15596702   -58165.845 
   41810    9.0296705    -15601514            0    -15596695    -58165.79 
   41820    9.0231398    -15601511            0    -15596696   -58165.656 
   41830    9.0035907    -15601505            0    -15596700   -58165.438 
   41840    9.0037191    -15601507            0    -15596702   -58165.504 
   41850    9.0249279    -15601521            0    -15596705   -58165.897 
   41860    9.0205797    -15601525            0    -15596711    -58165.95 
   41870    8.9762332    -15601511            0    -15596720   -58165.381 
   41880    8.9589881    -15601504            0    -15596723   -58165.055 
   41890    9.0036757    -15601519            0    -15596714   -58165.444 
   41900    9.0650914    -15601537            0    -15596699   -58165.892 
   41910    9.0866319    -15601537            0    -15596687   -58165.684 
   41920    9.0532437    -15601523            0    -15596691    -58165.01 
   41930    8.9911208    -15601513            0    -15596715   -58164.526 
   41940    8.9684755    -15601520            0    -15596734   -58164.626 
   41950     8.998806    -15601543            0    -15596741     -58165.3 
   41960    9.0331069    -15601568            0    -15596747   -58166.012 
   41970    9.0224126    -15601577            0    -15596762   -58166.186 
   41980    8.9798102    -15601573            0    -15596781   -58165.892 
   41990     8.961188    -15601573            0    -15596790   -58165.652 
   42000    8.9697671    -15601575            0    -15596788   -58165.535 
   42010    8.9744594    -15601568            0    -15596779   -58165.206 
   42020    8.9735165    -15601556            0    -15596767   -58164.744 
   42030    8.9847266    -15601551            0    -15596756   -58164.571 
   42040    9.0009042    -15601552            0    -15596749   -58164.645 
   42050    9.0174334    -15601558            0    -15596745   -58164.839 
   42060    9.0268628    -15601564            0    -15596746   -58165.066 
   42070    9.0222004    -15601569            0    -15596754   -58165.283 
   42080    9.0050966    -15601575            0    -15596769   -58165.532 
   42090    8.9760537    -15601576            0    -15596786   -58165.663 
   42100    8.9668321    -15601581            0    -15596795   -58165.867 
   42110    8.9849242    -15601591            0    -15596796   -58166.177 
   42120    9.0051963    -15601596            0    -15596790   -58166.262 
   42130    9.0161778    -15601589            0    -15596777   -58165.817 
   42140    9.0398202    -15601572            0    -15596747   -58164.883 
   42150    9.0327224    -15601548            0    -15596727   -58163.783 
   42160    9.0317018    -15601541            0    -15596721   -58163.321 
   42170    9.0633428    -15601561            0    -15596724   -58163.814 
   42180    9.0655298    -15601581            0    -15596743   -58164.423 
   42190    9.0265263    -15601587            0    -15596769   -58164.555 
   42200    9.0018539    -15601588            0    -15596784   -58164.471 
   42210    8.9884909    -15601588            0    -15596791   -58164.344 
   42220    8.9860364    -15601590            0    -15596794   -58164.275 
   42230    8.9965022    -15601595            0    -15596794   -58164.323 
   42240    8.9996825    -15601593            0    -15596791   -58164.227 
   42250    9.0104388    -15601594            0    -15596785   -58164.218 
   42260    9.0363429    -15601602            0    -15596779    -58164.43 
   42270    9.0483105    -15601609            0    -15596780   -58164.604 
   42280    9.0070413    -15601604            0    -15596797   -58164.418 
   42290     8.955808    -15601598            0    -15596818   -58164.251 
   42300     8.954054    -15601604            0    -15596826   -58164.475 
   42310    8.9675822    -15601606            0    -15596820   -58164.545 
   42320    8.9806259    -15601597            0    -15596805   -58164.254 
   42330    9.0061124    -15601592            0    -15596786   -58164.019 
   42340    9.0259474    -15601592            0    -15596775   -58163.995 
   42350    9.0331685    -15601596            0    -15596775   -58164.106 
   42360    9.0232412    -15601596            0    -15596781   -58164.103 
   42370    9.0076656    -15601597            0    -15596789   -58164.041 
   42380    9.0105086    -15601607            0    -15596798   -58164.251 
   42390    9.0211559    -15601622            0    -15596808   -58164.652 
   42400     9.018657    -15601635            0    -15596822   -58165.003 
   42410    9.0007845    -15601642            0    -15596838   -58165.154 
   42420    8.9804826    -15601640            0    -15596847    -58165.02 
   42430    8.9830779    -15601642            0    -15596847   -58164.948 
   42440    9.0137141    -15601655            0    -15596845   -58165.203 
   42450    9.0343976    -15601667            0    -15596846   -58165.372 
   42460    9.0087411    -15601662            0    -15596854   -58164.976 
   42470     8.956151    -15601643            0    -15596864   -58164.199 
   42480    8.9508775    -15601640            0    -15596863   -58163.905 
   42490    9.0068905    -15601651            0    -15596844    -58164.03 
   42500    9.0501334    -15601649            0    -15596819   -58163.619 
   42510    9.0274725    -15601626            0    -15596809   -58162.612 
   42520    9.0025506    -15601612            0    -15596808   -58161.931 
   42530    9.0050224    -15601614            0    -15596808   -58161.841 
   42540    9.0153215    -15601620            0    -15596809   -58162.033 
   42550    9.0232958    -15601628            0    -15596812   -58162.363 
   42560    9.0144231    -15601631            0    -15596820   -58162.589 
   42570    9.0069429    -15601637            0    -15596830   -58162.915 
   42580    9.0143366    -15601651            0    -15596840   -58163.471 
   42590    8.9932867    -15601651            0    -15596852   -58163.533 
   42600    8.9587733    -15601639            0    -15596858   -58163.162 
   42610    8.9793689    -15601647            0    -15596854   -58163.372 
   42620    9.0250808    -15601667            0    -15596851   -58164.031 
   42630    9.0292337    -15601672            0    -15596854   -58164.242 
   42640    8.9958216    -15601662            0    -15596861    -58164.02 
   42650    8.9729049    -15601656            0    -15596867   -58163.963 
   42660    8.9814528    -15601659            0    -15596866   -58164.235 
   42670    9.0127357    -15601668            0    -15596858   -58164.638 
   42680    9.0294818    -15601668            0    -15596849   -58164.693 
   42690    9.0251086    -15601659            0    -15596842    -58164.44 
   42700    9.0336539    -15601660            0    -15596839   -58164.484 
   42710    9.0323918    -15601664            0    -15596844   -58164.642 
   42720    8.9927578    -15601661            0    -15596861   -58164.594 
   42730    8.9491797    -15601655            0    -15596879    -58164.48 
   42740    8.9537551    -15601661            0    -15596882   -58164.711 
   42750    8.9874257    -15601669            0    -15596873   -58165.025 
   42760     9.016296    -15601669            0    -15596857   -58165.057 
   42770    9.0254673    -15601659            0    -15596842   -58164.819 
   42780    9.0214272    -15601647            0    -15596833   -58164.537 
   42790    9.0190183    -15601639            0    -15596826   -58164.383 
   42800    9.0228986    -15601631            0    -15596816   -58164.215 
   42810     9.043046    -15601622            0    -15596796   -58163.988 
   42820    9.0723148    -15601624            0    -15596782   -58164.079 
   42830    9.0740711    -15601629            0    -15596786   -58164.344 
   42840    9.0424787    -15601635            0    -15596809   -58164.737 
   42850    9.0142394    -15601643            0    -15596832   -58165.203 
   42860    8.9953855    -15601646            0    -15596846   -58165.475 
   42870    8.9947762    -15601653            0    -15596853   -58165.839 
   42880    9.0126865    -15601668            0    -15596858   -58166.434 
   42890    9.0210653    -15601681            0    -15596866   -58166.951 
   42900    8.9970975    -15601683            0    -15596881   -58167.089 
   42910    8.9506952    -15601673            0    -15596896   -58166.799 
   42920    8.9322315    -15601665            0    -15596898    -58166.53 
   42930    8.9761576    -15601671            0    -15596881   -58166.643 
   42940    9.0521063    -15601686            0    -15596855   -58167.014 
   42950    9.0701326    -15601692            0    -15596851   -58167.113 
   42960    9.0287767    -15601679            0    -15596861   -58166.625 
   42970    8.9928401    -15601670            0    -15596871    -58166.27 
   42980    8.9972741    -15601679            0    -15596878   -58166.526 
   42990    9.0165618    -15601695            0    -15596883   -58167.035 
   43000    9.0191207    -15601707            0    -15596894   -58167.377 
   43010    8.9808655    -15601704            0    -15596911   -58167.181 
   43020    8.9450782    -15601697            0    -15596923   -58166.815 
   43030    8.9548828    -15601701            0    -15596922   -58166.689 
   43040    8.9872708    -15601701            0    -15596905   -58166.347 
   43050    9.0202041    -15601689            0    -15596875   -58165.594 
   43060    9.0295813    -15601681            0    -15596862   -58165.054 
   43070    9.0330752    -15601683            0    -15596862    -58164.98 
   43080    9.0232321    -15601684            0    -15596869   -58164.967 
   43090    8.9969086    -15601681            0    -15596880    -58164.86 
   43100    8.9869674    -15601685            0    -15596889   -58165.035 
   43110    9.0080112    -15601704            0    -15596896   -58165.669 
   43120    9.0153158    -15601718            0    -15596907   -58166.165 
   43130    8.9825985    -15601718            0    -15596924   -58166.198 
   43140    8.9523013    -15601719            0    -15596941   -58166.211 
   43150    8.9700654    -15601734            0    -15596947   -58166.654 
   43160    8.9961442    -15601745            0    -15596944   -58166.949 
   43170    9.0086796    -15601738            0    -15596930   -58166.634 
   43180    9.0402491    -15601729            0    -15596904   -58166.114 
   43190    9.0412396    -15601713            0    -15596888   -58165.361 
   43200    8.9951102    -15601684            0    -15596884   -58164.175 
   43210    8.9670273    -15601663            0    -15596878   -58163.265 
   43220    9.0134314    -15601673            0    -15596862   -58163.351 
   43230    9.0830109    -15601696            0    -15596849   -58163.959 
   43240    9.0781082    -15601701            0    -15596856   -58164.048 
   43250    9.0078318    -15601690            0    -15596883   -58163.744 
   43260    8.9855657    -15601693            0    -15596897   -58163.848 
   43270    9.0150527    -15601711            0    -15596900   -58164.439 
   43280    9.0227474    -15601720            0    -15596905   -58164.716 
   43290    9.0007986    -15601717            0    -15596914   -58164.624 
   43300    8.9846785    -15601718            0    -15596924    -58164.66 
   43310    8.9907843    -15601729            0    -15596930   -58165.023 
   43320    9.0065083    -15601743            0    -15596936   -58165.535 
   43330    9.0003761    -15601750            0    -15596947   -58165.806 
   43340    8.9583424    -15601746            0    -15596965   -58165.674 
   43350    8.9331947    -15601745            0    -15596978   -58165.649 
   43360    8.9667874    -15601760            0    -15596975   -58166.086 
   43370    9.0180309    -15601770            0    -15596957   -58166.258 
   43380    9.0420292    -15601760            0    -15596935   -58165.772 
   43390    9.0334559    -15601744            0    -15596924   -58165.078 
   43400    9.0074276    -15601728            0    -15596921   -58164.413 
   43410    8.9911322    -15601719            0    -15596921   -58164.004 
   43420    9.0055536    -15601723            0    -15596917   -58164.001 
   43430    9.0237144    -15601721            0    -15596905   -58163.741 
   43440    9.0335832    -15601707            0    -15596886   -58163.016 
   43450    9.0471221    -15601700            0    -15596871   -58162.581 
   43460    9.0731016    -15601712            0    -15596870   -58162.904 
   43470    9.0759254    -15601731            0    -15596888   -58163.621 
   43480       9.0342    -15601738            0    -15596917   -58163.992 
   43490    8.9975534    -15601735            0    -15596934   -58164.009 
   43500    8.9931671    -15601742            0    -15596942   -58164.249 
   43510    9.0038194    -15601753            0    -15596948   -58164.624 
   43520    9.0003786    -15601758            0    -15596955    -58164.79 
   43530    9.0035964    -15601767            0    -15596962   -58165.072 
   43540    9.0040474    -15601778            0    -15596972   -58165.345 
   43550    8.9823763    -15601780            0    -15596987   -58165.338 
   43560    8.9569692    -15601779            0    -15596999   -58165.213 
   43570    8.9443857    -15601776            0    -15597003    -58165.03 
   43580    8.9629695    -15601771            0    -15596987   -58164.789 
   43590    9.0291028    -15601773            0    -15596955   -58164.787 
   43600    9.0622456    -15601779            0    -15596943   -58164.991 
   43610    9.0427559    -15601775            0    -15596949   -58164.942 
   43620    8.9999545    -15601766            0    -15596963   -58164.783 
   43630    8.9803659    -15601766            0    -15596973   -58164.978 
   43640    8.9949272    -15601779            0    -15596978    -58165.59 
   43650    9.0182222    -15601795            0    -15596982    -58166.27 
   43660    9.0020996    -15601796            0    -15596992   -58166.391 
   43670     8.936515    -15601779            0    -15597010   -58165.854 
   43680    8.9020138    -15601770            0    -15597019   -58165.548 
   43690    8.9665905    -15601788            0    -15597003   -58166.029 
   43700     9.058529    -15601808            0    -15596974   -58166.531 
   43710    9.0572844    -15601802            0    -15596968   -58166.285 
   43720    9.0039522    -15601780            0    -15596975   -58165.625 
   43730    8.9802557    -15601775            0    -15596982   -58165.412 
   43740     8.968316    -15601769            0    -15596983   -58165.128 
   43750    8.9583949    -15601755            0    -15596974    -58164.46 
   43760     9.013174    -15601759            0    -15596949   -58164.336 
   43770    9.0899682    -15601784            0    -15596933   -58164.896 
   43780    9.0984188    -15601796            0    -15596940   -58165.153 
   43790    9.0427771    -15601786            0    -15596960   -58164.706 
   43800    9.0023602    -15601780            0    -15596975   -58164.418 
   43810    8.9955549    -15601786            0    -15596985   -58164.585 
   43820    9.0009762    -15601796            0    -15596992   -58164.923 
   43830     9.003437    -15601805            0    -15597000    -58165.23 
   43840    9.0021198    -15601813            0    -15597009   -58165.498 
   43850    9.0033644    -15601826            0    -15597021   -58165.826 
   43860     8.983721    -15601831            0    -15597037   -58165.848 
   43870    8.9374712    -15601820            0    -15597051   -58165.309 
   43880    8.9293168    -15601815            0    -15597050   -58164.927 
   43890    9.0008083    -15601827            0    -15597023   -58165.082 
   43900    9.0562759    -15601832            0    -15596998    -58165.08 
   43910    9.0266966    -15601814            0    -15596997   -58164.492 
   43920    8.9859302    -15601797            0    -15597001   -58163.897 
   43930    8.9910319    -15601800            0    -15597001   -58163.986 
   43940    9.0406296    -15601824            0    -15596999   -58164.815 
   43950    9.0612515    -15601844            0    -15597008   -58165.562 
   43960    9.0107321    -15601844            0    -15597035   -58165.731 
   43970    8.9565824    -15601833            0    -15597053   -58165.515 
   43980    8.9635438    -15601837            0    -15597053   -58165.707 
   43990    8.9960545    -15601846            0    -15597045   -58166.034 
   44000    8.9899395    -15601834            0    -15597036   -58165.613 
   44010    8.9702557    -15601811            0    -15597024   -58164.803 
   44020    8.9984665    -15601807            0    -15597005   -58164.603 
   44030    9.0498694    -15601822            0    -15596992   -58165.031 
   44040     9.054918    -15601827            0    -15596994    -58165.18 
   44050    9.0263353    -15601822            0    -15597005   -58164.996 
   44060    9.0053634    -15601822            0    -15597016   -58164.892 
   44070    8.9891135    -15601820            0    -15597023   -58164.772 
   44080    8.9831857    -15601819            0    -15597025   -58164.702 
   44090    8.9932271    -15601821            0    -15597022   -58164.744 
   44100    9.0062012    -15601823            0    -15597016    -58164.71 
   44110    9.0209688    -15601822            0    -15597008    -58164.59 
   44120    9.0453191    -15601823            0    -15596996   -58164.471 
   44130    9.0668931    -15601823            0    -15596984   -58164.333 
   44140    9.0511649    -15601816            0    -15596985   -58164.078 
   44150    9.0078028    -15601810            0    -15597002   -58163.973 
   44160    8.9812722    -15601815            0    -15597022    -58164.26 
   44170    8.9907142    -15601832            0    -15597034   -58164.835 
   44180    9.0087604    -15601848            0    -15597040    -58165.37 
   44190    9.0086048    -15601856            0    -15597048   -58165.626 
   44200    8.9935746    -15601859            0    -15597059   -58165.714 
   44210    8.9820306    -15601865            0    -15597072   -58165.889 
   44220    8.9656974    -15601873            0    -15597088   -58166.048 
   44230    8.9340291    -15601876            0    -15597108    -58166.06 
   44240    8.9197159    -15601882            0    -15597121   -58166.088 
   44250    8.9415825    -15601887            0    -15597115   -58166.047 
   44260    8.9875773    -15601882            0    -15597086   -58165.596 
   44270    9.0065728    -15601870            0    -15597064   -58164.939 
   44280    9.0039755    -15601860            0    -15597055   -58164.404 
   44290     9.001433    -15601853            0    -15597050   -58164.013 
   44300    8.9995402    -15601847            0    -15597044   -58163.688 
   44310    9.0027463    -15601842            0    -15597038    -58163.45 
   44320    9.0099059    -15601838            0    -15597029   -58163.245 
   44330    9.0207829    -15601833            0    -15597019   -58163.059 
   44340    9.0495799    -15601838            0    -15597009   -58163.188 
   44350    9.0658751    -15601845            0    -15597007   -58163.424 
   44360    9.0233455    -15601841            0    -15597025   -58163.419 
   44370    8.9653797    -15601836            0    -15597051   -58163.447 
   44380    8.9668842    -15601846            0    -15597061   -58163.849 
   44390    8.9890523    -15601857            0    -15597060   -58164.191 
   44400    8.9922954    -15601854            0    -15597055   -58164.069 
   44410    8.9995536    -15601849            0    -15597046   -58163.921 
   44420    9.0247086    -15601851            0    -15597034   -58163.998 
   44430    9.0485219    -15601851            0    -15597022   -58164.077 
   44440    9.0602322    -15601848            0    -15597013   -58164.098 
   44450    9.0399102    -15601841            0    -15597017   -58163.985 
   44460    9.0001711    -15601840            0    -15597037   -58164.112 
   44470    8.9745512    -15601848            0    -15597058   -58164.509 
   44480    8.9663087    -15601853            0    -15597068   -58164.822 
   44490    8.9939405    -15601868            0    -15597068   -58165.423 
   44500    9.0364712    -15601888            0    -15597066   -58166.234 
   44510    9.0343068    -15601894            0    -15597073   -58166.626 
   44520    8.9748575    -15601885            0    -15597095   -58166.545 
   44530    8.9230989    -15601876            0    -15597113   -58166.411 
   44540    8.9240136    -15601873            0    -15597110   -58166.421 
   44550    8.9753753    -15601882            0    -15597092   -58166.772 
   44560     9.025638    -15601896            0    -15597080     -58167.3 
   44570    9.0212049    -15601893            0    -15597079   -58167.246 
   44580    8.9787036    -15601874            0    -15597082   -58166.639 
   44590    8.9744288    -15601869            0    -15597079   -58166.487 
   44600    9.0193774    -15601883            0    -15597070   -58166.904 
   44610     9.043288    -15601888            0    -15597061   -58166.964 
   44620    9.0125753    -15601872            0    -15597062   -58166.319 
   44630    8.9678216    -15601854            0    -15597068   -58165.607 
   44640    8.9614396    -15601852            0    -15597070   -58165.406 
   44650    8.9964079    -15601860            0    -15597059   -58165.476 
   44660    9.0366558    -15601865            0    -15597043   -58165.401 
   44670    9.0587914    -15601868            0    -15597034   -58165.265 
   44680    9.0419494    -15601865            0    -15597039   -58164.973 
   44690    8.9914088    -15601856            0    -15597057   -58164.579 
   44700    8.9650247    -15601858            0    -15597074   -58164.557 
   44710    8.9750582    -15601869            0    -15597079   -58164.809 
   44720    8.9925166    -15601876            0    -15597077    -58164.93 
   44730    9.0087199    -15601879            0    -15597071   -58164.888 
   44740    9.0413647    -15601888            0    -15597063   -58165.015 
   44750    9.0757999    -15601899            0    -15597055   -58165.161 
   44760    9.0614454    -15601899            0    -15597063   -58165.047 
   44770    9.0182838    -15601901            0    -15597088   -58165.059 
   44780     8.982279    -15601903            0    -15597109   -58165.039 
   44790    8.9648029    -15601904            0    -15597119   -58164.916 
   44800    8.9660247    -15601904            0    -15597119    -58164.75 
   44810    8.9808323    -15601901            0    -15597108   -58164.486 
   44820    9.0079823    -15601898            0    -15597091   -58164.232 
   44830    9.0218228    -15601891            0    -15597076   -58163.892 
   44840    9.0211848    -15601883            0    -15597069   -58163.562 
   44850    9.0137283    -15601878            0    -15597067   -58163.294 
   44860    9.0093801    -15601877            0    -15597069   -58163.215 
   44870    9.0267844    -15601894            0    -15597076   -58163.741 
   44880    9.0177915    -15601917            0    -15597104   -58164.583 
   44890    8.9948079    -15601933            0    -15597133   -58165.161 
   44900    8.9790129    -15601937            0    -15597145   -58165.221 
   44910    8.9609159    -15601929            0    -15597147   -58164.907 
   44920    8.9586045    -15601920            0    -15597139   -58164.499 
   44930    8.9942331    -15601919            0    -15597119   -58164.356 
   44940     9.030605    -15601922            0    -15597102   -58164.299 
   44950    9.0204024    -15601910            0    -15597096   -58163.813 
   44960    8.9895175    -15601893            0    -15597096   -58163.152 
   44970    8.9853447    -15601888            0    -15597092   -58162.903 
   44980    9.0228321    -15601899            0    -15597083   -58163.252 
   44990     9.075187    -15601916            0    -15597073   -58163.852 
   45000    9.0812208    -15601923            0    -15597077   -58164.144 
   45010    9.0200928    -15601922            0    -15597108   -58164.252 
   45020    8.9890751    -15601929            0    -15597131   -58164.558 
   45030    8.9884604    -15601938            0    -15597141   -58164.876 
   45040    8.9829846    -15601940            0    -15597146   -58164.916 
   45050    8.9934105    -15601946            0    -15597146    -58165.04 
   45060     9.005773    -15601950            0    -15597143   -58165.067 
   45070    8.9866448    -15601936            0    -15597140   -58164.515 
   45080    8.9749675    -15601919            0    -15597129   -58163.877 
   45090    9.0079838    -15601915            0    -15597107   -58163.658 
   45100    9.0465151    -15601917            0    -15597089   -58163.748 
   45110    9.0578923    -15601921            0    -15597087   -58163.965 
   45120    9.0404937    -15601922            0    -15597097   -58164.177 
   45130    9.0165127    -15601925            0    -15597113   -58164.493 
   45140    9.0071337    -15601932            0    -15597125    -58164.96 
   45150    9.0196879    -15601945            0    -15597131   -58165.669 
   45160    9.0466411    -15601968            0    -15597140   -58166.634 
   45170    9.0479437    -15601984            0    -15597155   -58167.341 
   45180    9.0104966    -15601982            0    -15597173    -58167.43 
   45190     8.976508    -15601974            0    -15597184   -58167.275 
   45200    8.9825094    -15601979            0    -15597185   -58167.451 
   45210    8.9997024    -15601985            0    -15597182   -58167.617 
   45220    8.9939202    -15601977            0    -15597177   -58167.274 
   45230    8.9925409    -15601967            0    -15597168   -58166.742 
   45240    9.0103712    -15601958            0    -15597149   -58166.103 
   45250    9.0263954    -15601942            0    -15597125   -58165.205 
   45260    9.0346525    -15601932            0    -15597110   -58164.568 
   45270    9.0405827    -15601933            0    -15597108   -58164.427 
   45280    9.0300209    -15601934            0    -15597115   -58164.358 
   45290    9.0208135    -15601938            0    -15597124    -58164.43 
   45300    9.0307104    -15601952            0    -15597133   -58164.873 
   45310    9.0393699    -15601969            0    -15597145   -58165.416 
   45320    9.0164275    -15601971            0    -15597159   -58165.518 
   45330    8.9789634    -15601962            0    -15597170   -58165.223 
   45340     8.986443    -15601968            0    -15597172   -58165.369 
   45350    9.0184466    -15601984            0    -15597171    -58165.79 
   45360    9.0086462    -15601980            0    -15597173   -58165.641 
   45370    8.9816796    -15601971            0    -15597177   -58165.318 
   45380    8.9945488    -15601981            0    -15597180   -58165.625 
   45390    9.0206615    -15602000            0    -15597185   -58166.188 
   45400    9.0032431    -15602005            0    -15597200   -58166.305 
   45410    8.9613107    -15602001            0    -15597218   -58166.072 
   45420    8.9397313    -15601996            0    -15597225   -58165.823 
   45430    8.9634205    -15601999            0    -15597216   -58165.816 
   45440    9.0126015    -15602006            0    -15597196   -58165.877 
   45450    9.0460683    -15602010            0    -15597182   -58165.869 
   45460    9.0368317    -15602005            0    -15597182   -58165.584 
   45470    8.9996316    -15601993            0    -15597190   -58165.122 
   45480     8.980234    -15601990            0    -15597197   -58164.962 
   45490    8.9742095    -15601988            0    -15597199    -58164.87 
   45500    8.9766475    -15601981            0    -15597190   -58164.576 
   45510    9.0478284    -15601986            0    -15597157   -58164.521 
   45520    9.0946881    -15601992            0    -15597138   -58164.468 
   45530    9.0589078    -15601980            0    -15597145    -58163.93 
   45540     8.998032    -15601965            0    -15597163   -58163.332 
   45550    8.9955443    -15601976            0    -15597175   -58163.578 
   45560    9.0241752    -15601999            0    -15597183   -58164.275 
   45570    9.0219974    -15602010            0    -15597195    -58164.62 
   45580    8.9957942    -15602010            0    -15597209   -58164.681 
   45590    8.9870811    -15602015            0    -15597219   -58164.892 
   45600    8.9945062    -15602023            0    -15597223   -58165.162 
   45610    8.9923527    -15602022            0    -15597223   -58165.144 
   45620    8.9890311    -15602019            0    -15597222       -58165 
   45630    8.9971368    -15602020            0    -15597218   -58164.977 
   45640    9.0039931    -15602021            0    -15597216    -58164.95 
   45650    9.0017461    -15602019            0    -15597215   -58164.817 
   45660    8.9984281    -15602017            0    -15597215   -58164.662 
   45670    9.0018636    -15602017            0    -15597213   -58164.564 
   45680    9.0060217    -15602018            0    -15597212   -58164.455 
   45690    9.0161574    -15602023            0    -15597212   -58164.491 
   45700    9.0260396    -15602034            0    -15597217   -58164.768 
   45710    8.9968352    -15602040            0    -15597239   -58164.993 
   45720    8.9552379    -15602040            0    -15597261   -58165.049 
   45730    8.9471775    -15602042            0    -15597267   -58165.116 
   45740    8.9669048    -15602045            0    -15597259   -58165.161 
   45750    9.0051451    -15602048            0    -15597242   -58165.186 
   45760    9.0313782    -15602048            0    -15597228   -58165.082 
   45770    9.0314065    -15602044            0    -15597224   -58164.841 
   45780    9.0129041    -15602037            0    -15597227   -58164.539 
   45790    8.9783689    -15602025            0    -15597234   -58164.068 
   45800    8.9541479    -15602014            0    -15597236   -58163.615 
   45810    8.9886614    -15602015            0    -15597218   -58163.464 
   45820    9.0624433    -15602022            0    -15597185   -58163.408 
   45830    9.0888967    -15602028            0    -15597177   -58163.425 
   45840    9.0501736    -15602021            0    -15597192   -58163.122 
   45850     8.987367    -15602009            0    -15597212   -58162.665 
   45860    8.9854915    -15602018            0    -15597223   -58162.892 
   45870    9.0237068    -15602044            0    -15597228   -58163.607 
   45880    9.0268783    -15602055            0    -15597238    -58163.91 
   45890    8.9870835    -15602050            0    -15597254   -58163.716 
   45900    8.9612999    -15602047            0    -15597265   -58163.621 
   45910    8.9750689    -15602055            0    -15597265   -58163.839 
   45920      9.00281    -15602062            0    -15597257       -58164 
   45930    9.0322114    -15602064            0    -15597244   -58163.919 
   45940    9.0738148    -15602061            0    -15597219   -58163.581 
   45950     9.083749    -15602047            0    -15597199   -58162.888 
   45960    9.0510468    -15602030            0    -15597200   -58162.202 
   45970    9.0037283    -15602021            0    -15597216   -58161.835 
   45980    8.9723097    -15602023            0    -15597235   -58161.895 
   45990    8.9828604    -15602038            0    -15597244   -58162.392 
   46000    9.0139355    -15602058            0    -15597247   -58163.073 
   46010    9.0363616    -15602074            0    -15597252   -58163.713 
   46020    9.0408186    -15602085            0    -15597260   -58164.197 
   46030    9.0286051    -15602088            0    -15597269   -58164.422 
   46040    9.0047784    -15602084            0    -15597278   -58164.439 
   46050    8.9810793    -15602078            0    -15597285   -58164.385 
   46060    8.9839544    -15602081            0    -15597286   -58164.567 
   46070    8.9935553    -15602083            0    -15597283   -58164.648 
   46080    8.9903668    -15602072            0    -15597274   -58164.311 
   46090    9.0042157    -15602062            0    -15597257   -58163.937 
   46100    9.0376825    -15602059            0    -15597236   -58163.761 
   46110    9.0558187    -15602058            0    -15597225   -58163.737 
   46120    9.0396751    -15602054            0    -15597229    -58163.65 
   46130    9.0065743    -15602049            0    -15597242   -58163.559 
   46140    8.9895352    -15602050            0    -15597252   -58163.654 
   46150    9.0008661    -15602060            0    -15597256   -58163.974 
   46160    9.0178694    -15602071            0    -15597258   -58164.299 
   46170    9.0292447    -15602080            0    -15597262    -58164.59 
   46180    9.0299577    -15602090            0    -15597271   -58164.852 
   46190    9.0102675    -15602093            0    -15597284   -58164.944 
   46200     8.987099    -15602094            0    -15597298    -58164.97 
   46210    8.9852949    -15602100            0    -15597305   -58165.143 
   46220    8.9955467    -15602108            0    -15597308    -58165.28 
   46230    8.9848217    -15602103            0    -15597308   -58164.901 
   46240    8.9824505    -15602096            0    -15597302    -58164.39 
   46250    9.0333153    -15602098            0    -15597277   -58164.096 
   46260    9.0646215    -15602090            0    -15597253   -58163.527 
   46270    9.0405425    -15602073            0    -15597249   -58162.824 
   46280    9.0201538    -15602069            0    -15597255   -58162.641 
   46290    9.0274617    -15602085            0    -15597267   -58163.196 
   46300    9.0271421    -15602104            0    -15597286    -58163.87 
   46310    8.9974527    -15602106            0    -15597304   -58164.001 
   46320    8.9819342    -15602105            0    -15597311   -58163.951 
   46330    8.9981661    -15602113            0    -15597311   -58164.167 
   46340    9.0135443    -15602120            0    -15597310    -58164.32 
   46350     8.996337    -15602113            0    -15597312   -58163.981 
   46360    8.9736045    -15602101            0    -15597312   -58163.488 
   46370    8.9837542    -15602097            0    -15597303   -58163.249 
   46380    9.0305727    -15602099            0    -15597280   -58163.168 
   46390    9.0636251    -15602098            0    -15597261   -58163.001 
   46400    9.0583678    -15602094            0    -15597259   -58162.806 
   46410    9.0243975    -15602088            0    -15597272   -58162.583 
   46420    8.9959184    -15602087            0    -15597286   -58162.513 
   46430    8.9893992    -15602091            0    -15597293   -58162.565 
   46440    9.0076688    -15602102            0    -15597294   -58162.888 
   46450    9.0494607    -15602126            0    -15597297   -58163.704 
   46460    9.0693801    -15602150            0    -15597309   -58164.484 
   46470    9.0272317    -15602149            0    -15597331   -58164.449 
   46480    8.9637222    -15602129            0    -15597345   -58163.703 
   46490    8.9389648    -15602116            0    -15597345   -58163.095 
   46500    8.9621553    -15602114            0    -15597331   -58162.844 
   46510    8.9936782    -15602111            0    -15597311   -58162.571 
   46520     9.007465    -15602105            0    -15597297   -58162.215 
   46530    9.0155155    -15602102            0    -15597290   -58162.036 
   46540    9.0394967    -15602113            0    -15597289   -58162.386 
   46550    9.0498794    -15602127            0    -15597297   -58162.902 
   46560    9.0104002    -15602127            0    -15597318   -58163.009 
   46570    8.9678261    -15602120            0    -15597334   -58162.869 
   46580    8.9633027    -15602119            0    -15597335   -58162.839 
   46590    8.9914714    -15602128            0    -15597329   -58163.107 
   46600    9.0334344    -15602144            0    -15597323   -58163.656 
   46610    9.0617641    -15602162            0    -15597326   -58164.315 
   46620    9.0448995    -15602172            0    -15597344   -58164.741 
   46630    8.9922252    -15602165            0    -15597366   -58164.646 
   46640    8.9621983    -15602156            0    -15597373   -58164.389 
   46650    8.9738389    -15602158            0    -15597369   -58164.441 
   46660     9.012956    -15602169            0    -15597359    -58164.79 
   46670    9.0360556    -15602176            0    -15597354   -58164.955 
   46680    9.0213501    -15602171            0    -15597356   -58164.713 
   46690     8.983394    -15602161            0    -15597367   -58164.326 
   46700    8.9530215    -15602157            0    -15597379   -58164.202 
   46710    8.9528965    -15602164            0    -15597386   -58164.455 
   46720    8.9745171    -15602173            0    -15597383   -58164.665 
   46730    9.0056317    -15602173            0    -15597367   -58164.493 
   46740    9.0264082    -15602165            0    -15597348   -58163.967 
   46750    9.0248975    -15602153            0    -15597336   -58163.335 
   46760    9.0182196    -15602144            0    -15597331   -58162.933 
   46770    9.0224593    -15602146            0    -15597330   -58162.961 
   46780    9.0258291    -15602154            0    -15597337   -58163.257 
   46790    8.9916517    -15602157            0    -15597358   -58163.413 
   46800    8.9385639    -15602152            0    -15597382   -58163.306 
   46810    8.9391447    -15602157            0    -15597386     -58163.4 
   46820    8.9910283    -15602174            0    -15597376    -58163.91 
   46830    9.0356263    -15602189            0    -15597367   -58164.366 
   46840    9.0436476    -15602194            0    -15597367   -58164.549 
   46850    9.0293268    -15602195            0    -15597377   -58164.615 
   46860    9.0068652    -15602194            0    -15597387   -58164.563 
   46870    8.9963841    -15602194            0    -15597393   -58164.526 
   46880    8.9769225    -15602185            0    -15597394    -58164.17 
   46890    8.9652657    -15602174            0    -15597390    -58163.71 
   46900    8.9771472    -15602168            0    -15597377   -58163.378 
   46910     8.995552    -15602163            0    -15597362   -58163.053 
   46920    9.0077373    -15602158            0    -15597351   -58162.774 
   46930    9.0005874    -15602149            0    -15597346   -58162.433 
   46940    8.9897605    -15602140            0    -15597342   -58162.192 
   46950     8.998327    -15602140            0    -15597338    -58162.33 
   46960    9.0225278    -15602149            0    -15597334    -58162.83 
   46970    9.0387958    -15602160            0    -15597336    -58163.44 
   46980    9.0381711    -15602171            0    -15597348   -58164.098 
   46990     9.019512    -15602180            0    -15597367   -58164.699 
   47000    9.0036494    -15602185            0    -15597380   -58165.096 
   47010    9.0064004    -15602191            0    -15597384   -58165.454 
   47020    9.0071175    -15602194            0    -15597387   -58165.706 
   47030    9.0006517    -15602195            0    -15597391   -58165.824 
   47040    9.0000363    -15602198            0    -15597395   -58166.006 
   47050    8.9970319    -15602202            0    -15597400   -58166.156 
   47060    8.9873751    -15602202            0    -15597405   -58166.217 
   47070    8.9789554    -15602201            0    -15597409   -58166.229 
   47080    8.9677814    -15602194            0    -15597408    -58165.97 
   47090    8.9686209    -15602181            0    -15597395   -58165.423 
   47100    9.0030042    -15602173            0    -15597369   -58164.987 
   47110    9.0066626    -15602158            0    -15597351   -58164.347 
   47120    8.9771769    -15602132            0    -15597341   -58163.446 
   47130    8.9914599    -15602127            0    -15597329   -58163.246 
   47140    9.0445792    -15602145            0    -15597318   -58163.781 
   47150    9.0647407    -15602156            0    -15597319   -58164.181 
   47160    9.0225681    -15602150            0    -15597335   -58164.047 
   47170    8.9731938    -15602142            0    -15597353   -58163.808 
   47180    8.9661645    -15602142            0    -15597357   -58163.802 
   47190    8.9944037    -15602154            0    -15597353   -58164.112 
   47200    9.0270828    -15602168            0    -15597350   -58164.518 
   47210    9.0305146    -15602173            0    -15597353   -58164.639 
   47220    9.0109824    -15602172            0    -15597363   -58164.603 
   47230    9.0044277    -15602181            0    -15597375   -58164.907 
   47240    9.0132414    -15602199            0    -15597389   -58165.542 
   47250    9.0007274    -15602207            0    -15597404   -58165.883 
   47260     8.957879    -15602194            0    -15597414   -58165.524 
   47270    8.9325432    -15602178            0    -15597411   -58164.998 
   47280    8.9564041    -15602179            0    -15597399   -58165.035 
   47290    9.0129244    -15602196            0    -15597386   -58165.581 
   47300    9.0470258    -15602208            0    -15597379   -58165.954 
   47310    9.0245583    -15602200            0    -15597384   -58165.752 
   47320    8.9811877    -15602188            0    -15597395   -58165.458 
   47330    8.9638105    -15602187            0    -15597403   -58165.535 
   47340    8.9788967    -15602194            0    -15597402   -58165.878 
   47350    9.0177347    -15602205            0    -15597392   -58166.297 
   47360    9.0657341    -15602217            0    -15597379   -58166.698 
   47370    9.0738096    -15602219            0    -15597377   -58166.725 
   47380    9.0034668    -15602201            0    -15597396   -58166.127 
   47390    8.9260438    -15602181            0    -15597417   -58165.502 
   47400    8.9444181    -15602191            0    -15597417   -58165.817 
   47410    9.0134807    -15602215            0    -15597404   -58166.579 
   47420    9.0405188    -15602221            0    -15597396   -58166.754 
   47430    9.0143701    -15602208            0    -15597398   -58166.325 
   47440    8.9874516    -15602199            0    -15597403    -58166.01 
   47450    8.9835692    -15602200            0    -15597406    -58166.06 
   47460    8.9881213    -15602202            0    -15597405   -58166.152 
   47470    9.0097183    -15602205            0    -15597396   -58166.229 
   47480    9.0242437    -15602201            0    -15597385   -58166.045 
   47490    9.0227975    -15602193            0    -15597378    -58165.71 
   47500    9.0133241    -15602186            0    -15597375    -58165.43 
   47510    9.0097791    -15602184            0    -15597376   -58165.414 
   47520    9.0103981    -15602188            0    -15597379   -58165.622 
   47530    9.0041773    -15602192            0    -15597386   -58165.903 
   47540    8.9973039    -15602200            0    -15597398   -58166.358 
   47550    8.9949553    -15602213            0    -15597413   -58167.029 
   47560    9.0004739    -15602232            0    -15597429   -58167.856 
   47570     8.995089    -15602245            0    -15597445   -58168.414 
   47580    8.9800291    -15602250            0    -15597457   -58168.574 
   47590    8.9603405    -15602244            0    -15597462   -58168.323 
   47600    8.9391576    -15602226            0    -15597455   -58167.664 
   47610    8.9487502    -15602213            0    -15597437    -58167.15 
   47620     8.980283    -15602216            0    -15597424   -58167.156 
   47630    8.9953452    -15602216            0    -15597416   -58167.083 
   47640    8.9976852    -15602210            0    -15597409   -58166.774 
   47650    9.0124955    -15602210            0    -15597401   -58166.614 
   47660    9.0215488    -15602209            0    -15597395   -58166.428 
   47670    9.0182169    -15602206            0    -15597393   -58166.207 
   47680    9.0190674    -15602209            0    -15597396   -58166.264 
   47690    9.0048729    -15602212            0    -15597406   -58166.399 
   47700    8.9769999    -15602214            0    -15597423   -58166.611 
   47710    8.9714358    -15602224            0    -15597437   -58167.177 
   47720    8.9793539    -15602237            0    -15597445   -58167.789 
   47730    8.9705321    -15602235            0    -15597448   -58167.963 
   47740    8.9659026    -15602227            0    -15597442   -58167.861 
   47750    9.0015755    -15602221            0    -15597417   -58167.726 
   47760    9.0461155    -15602221            0    -15597393   -58167.783 
   47770    9.0718236    -15602230            0    -15597389   -58168.192 
   47780    9.0609729    -15602237            0    -15597401   -58168.514 
   47790    9.0008588    -15602227            0    -15597423   -58168.179 
   47800    8.9526048    -15602212            0    -15597434   -58167.566 
   47810     8.961594    -15602214            0    -15597431   -58167.401 
   47820    9.0096996    -15602228            0    -15597420    -58167.67 
   47830    9.0514545    -15602242            0    -15597412   -58167.996 
   47840    9.0540219    -15602249            0    -15597417   -58168.081 
   47850    9.0141425    -15602247            0    -15597436   -58167.905 
   47860    8.9767302    -15602247            0    -15597456   -58167.689 
   47870    8.9671261    -15602246            0    -15597461   -58167.384 
   47880    8.9842981    -15602252            0    -15597457   -58167.258 
   47890     9.008495    -15602259            0    -15597451   -58167.237 
   47900    9.0143043    -15602258            0    -15597447   -58167.008 
   47910    8.9999854    -15602250            0    -15597446   -58166.542 
   47920    8.9975356    -15602247            0    -15597445   -58166.264 
   47930    9.0122164    -15602251            0    -15597441   -58166.195 
   47940    9.0170039    -15602248            0    -15597436    -58165.91 
   47950    9.0060641    -15602237            0    -15597431   -58165.367 
   47960    9.0092453    -15602232            0    -15597424   -58165.051 
   47970    9.0378174    -15602241            0    -15597417   -58165.212 
   47980    9.0591501    -15602253            0    -15597419   -58165.564 
   47990    9.0273528    -15602255            0    -15597437   -58165.632 
   48000    8.9857486    -15602256            0    -15597461   -58165.718 
   48010     8.991801    -15602271            0    -15597472   -58166.185 
   48020    9.0006278    -15602281            0    -15597477   -58166.484 
   48030    9.0030334    -15602286            0    -15597481     -58166.6 
   48040    9.0169471    -15602298            0    -15597485   -58166.872 
   48050    9.0005204    -15602299            0    -15597496   -58166.783 
   48060    8.9425629    -15602285            0    -15597512   -58166.219 
   48070    8.8991372    -15602272            0    -15597523   -58165.735 
   48080     8.929124    -15602271            0    -15597506   -58165.632 
   48090    9.0203644    -15602285            0    -15597471   -58165.993 
   48100    9.0633356    -15602298            0    -15597461   -58166.436 
   48110    9.0425115    -15602294            0    -15597468   -58166.346 
   48120    8.9811522    -15602277            0    -15597484   -58165.841 
   48130    8.9673157    -15602280            0    -15597494   -58165.931 
   48140    9.0029457    -15602300            0    -15597496   -58166.581 
   48150    9.0151833    -15602308            0    -15597497   -58166.814 
   48160    8.9858087    -15602299            0    -15597503   -58166.463 
   48170    8.9622538    -15602291            0    -15597508   -58166.209 
   48180    8.9810653    -15602298            0    -15597505   -58166.415 
   48190     9.019322    -15602304            0    -15597490   -58166.566 
   48200     9.016198    -15602286            0    -15597475   -58165.902 
   48210    8.9927916    -15602260            0    -15597460   -58164.916 
   48220    8.9998239    -15602247            0    -15597444   -58164.429 
   48230    9.0375446    -15602254            0    -15597431   -58164.659 
   48240    9.0697045    -15602269            0    -15597428   -58165.304 
   48250    9.0794296    -15602288            0    -15597443   -58166.157 
   48260     9.063728    -15602303            0    -15597465   -58166.774 
   48270     9.030403    -15602300            0    -15597481   -58166.695 
   48280    8.9750293    -15602282            0    -15597492    -58166.03 
   48290    8.9536916    -15602274            0    -15597496   -58165.626 
   48300    8.9876501    -15602284            0    -15597487   -58165.774 
   48310    9.0370292    -15602297            0    -15597474   -58166.051 
   48320      9.05067    -15602299            0    -15597469   -58165.988 
   48330    9.0182697    -15602289            0    -15597476   -58165.584 
   48340    8.9850645    -15602286            0    -15597491   -58165.484 
   48350    8.9810985    -15602299            0    -15597506   -58165.917 
   48360    8.9860551    -15602313            0    -15597517   -58166.399 
   48370    8.9868129    -15602324            0    -15597527   -58166.735 
   48380    8.9714829    -15602329            0    -15597541   -58166.921 
   48390    8.9508344    -15602338            0    -15597561    -58167.28 
   48400    8.9559199    -15602358            0    -15597578   -58168.012 
   48410    8.9722337    -15602375            0    -15597587   -58168.615 
   48420    8.9731062    -15602378            0    -15597589   -58168.657 
   48430    8.9635874    -15602365            0    -15597582   -58168.123 
   48440     8.988141    -15602352            0    -15597555   -58167.467 
   48450    9.0171262    -15602343            0    -15597530   -58166.972 
   48460    9.0165268    -15602333            0    -15597521   -58166.525 
   48470    9.0052174    -15602324            0    -15597518   -58166.112 
   48480    8.9916639    -15602315            0    -15597516   -58165.718 
   48490    8.9975725    -15602313            0    -15597511    -58165.58 
   48500    9.0255544    -15602320            0    -15597503   -58165.708 
   48510    9.0443926    -15602323            0    -15597496   -58165.723 
   48520    9.0294397    -15602318            0    -15597499   -58165.472 
   48530    8.9853688    -15602309            0    -15597514    -58165.22 
   48540    8.9583906    -15602311            0    -15597530   -58165.431 
   48550    8.9975064    -15602340            0    -15597538   -58166.531 
   48560    9.0479013    -15602376            0    -15597547    -58167.83 
   48570    9.0150216    -15602381            0    -15597570   -58168.149 
   48580    8.9573146    -15602370            0    -15597589   -58167.884 
   48590    8.9746455    -15602381            0    -15597592   -58168.198 
   48600    9.0182014    -15602401            0    -15597588   -58168.673 
   48610    8.9971722    -15602390            0    -15597588   -58168.102 
   48620    8.9526614    -15602364            0    -15597586   -58167.048 
   48630    8.9720933    -15602359            0    -15597570   -58166.655 
   48640    9.0425135    -15602373            0    -15597547   -58166.884 
   48650    9.0553428    -15602373            0    -15597540   -58166.719 
   48660    9.0065707    -15602353            0    -15597546   -58165.915 
   48670    8.9798626    -15602342            0    -15597549    -58165.45 
   48680    9.0018374    -15602352            0    -15597548   -58165.704 
   48690     9.029404    -15602365            0    -15597546   -58166.089 
   48700    9.0246275    -15602369            0    -15597552   -58166.105 
   48710    8.9735303    -15602357            0    -15597568   -58165.606 
   48720    8.9326733    -15602352            0    -15597585   -58165.309 
   48730    8.9520044    -15602368            0    -15597590   -58165.687 
   48740    9.0126875    -15602390            0    -15597580   -58166.301 
   48750    9.0680673    -15602400            0    -15597561   -58166.464 
   48760     9.059293    -15602387            0    -15597552   -58165.833 
   48770    9.0005006    -15602361            0    -15597557   -58164.809 
   48780    8.9668846    -15602352            0    -15597566   -58164.377 
   48790    8.9792326    -15602362            0    -15597570   -58164.654 
   48800    8.9983203    -15602370            0    -15597568   -58164.933 
   48810    9.0171093    -15602374            0    -15597562   -58165.066 
   48820    9.0326833    -15602378            0    -15597557    -58165.13 
   48830    9.0361976    -15602381            0    -15597559   -58165.248 
   48840    9.0285393    -15602391            0    -15597572   -58165.645 
   48850     8.987949    -15602391            0    -15597595   -58165.819 
   48860    8.9288488    -15602373            0    -15597608   -58165.302 
   48870     8.909115    -15602355            0    -15597601   -58164.646 
   48880    8.9583759    -15602358            0    -15597577   -58164.494 
   48890    9.0154414    -15602371            0    -15597560   -58164.705 
   48900    9.0326081    -15602375            0    -15597555    -58164.68 
   48910    9.0142245    -15602368            0    -15597558   -58164.379 
   48920    8.9988168    -15602367            0    -15597564   -58164.316 
   48930    8.9997406    -15602375            0    -15597572   -58164.609 
   48940    8.9954935    -15602382            0    -15597582   -58164.889 
   48950    8.9841214    -15602388            0    -15597594   -58165.085 
   48960    8.9743935    -15602396            0    -15597606   -58165.296 
   48970     8.973561    -15602407            0    -15597618   -58165.621 
   48980     8.990127    -15602428            0    -15597630    -58166.21 
   48990    8.9890134    -15602443            0    -15597646   -58166.618 
   49000    8.9501445    -15602441            0    -15597665   -58166.436 
   49010    8.9324431    -15602440            0    -15597673   -58166.155 
   49020     8.962834    -15602445            0    -15597662   -58165.992 
   49030    9.0123081    -15602447            0    -15597637   -58165.585 
   49040     9.021743    -15602435            0    -15597620   -58164.787 
   49050    9.0018838    -15602420            0    -15597616   -58163.938 
   49060    8.9879005    -15602411            0    -15597614    -58163.29 
   49070    8.9824019    -15602403            0    -15597610   -58162.782 
   49080    9.0055453    -15602407            0    -15597601   -58162.709 
   49090    9.0433837    -15602419            0    -15597592   -58162.969 
   49100    9.0448625    -15602421            0    -15597594   -58162.984 
   49110     9.005184    -15602418            0    -15597612   -58162.939 
   49120    8.9658545    -15602425            0    -15597640   -58163.315 
   49130    8.9733678    -15602441            0    -15597652   -58163.926 
   49140    8.9889573    -15602450            0    -15597653    -58164.26 
   49150    8.9978606    -15602453            0    -15597651   -58164.323 
   49160    9.0110164    -15602457            0    -15597648   -58164.391 
   49170    9.0205122    -15602462            0    -15597648   -58164.431 
   49180    8.9981894    -15602455            0    -15597652   -58164.114 
   49190    8.9481718    -15602438            0    -15597663   -58163.582 
   49200    8.9336706    -15602436            0    -15597668   -58163.577 
   49210    8.9811364    -15602450            0    -15597657   -58164.038 
   49220    9.0388388    -15602460            0    -15597636   -58164.293 
   49230    9.0424494    -15602451            0    -15597626    -58163.91 
   49240    9.0064848    -15602433            0    -15597626   -58163.182 
   49250    8.9884094    -15602425            0    -15597628   -58162.852 
   49260    9.0077578    -15602436            0    -15597628   -58163.162 
   49270    9.0436718    -15602457            0    -15597631   -58163.915 
   49280    9.0434155    -15602477            0    -15597650   -58164.649 
   49290    8.9823042    -15602473            0    -15597679    -58164.65 
   49300    8.9300802    -15602456            0    -15597690     -58164.1 
   49310    8.9504945    -15602458            0    -15597682     -58164.1 
   49320    9.0207851    -15602478            0    -15597664   -58164.605 
   49330    9.0511182    -15602485            0    -15597654   -58164.711 
   49340    9.0336652    -15602479            0    -15597658   -58164.433 
   49350    9.0021659    -15602474            0    -15597670   -58164.226 
   49360    8.9803429    -15602475            0    -15597683   -58164.261 
   49370    8.9623357    -15602474            0    -15597691   -58164.215 
   49380    8.9520717    -15602467            0    -15597690   -58163.947 
   49390    8.9936846    -15602464            0    -15597664   -58163.671 
   49400    9.0493626    -15602462            0    -15597632   -58163.382 
   49410    9.0419773    -15602452            0    -15597627   -58162.955 
   49420    9.0203414    -15602446            0    -15597632   -58162.656 
   49430    9.0033983    -15602447            0    -15597643   -58162.626 
   49440     8.991458    -15602452            0    -15597654   -58162.793 
   49450    8.9966444    -15602465            0    -15597663   -58163.288 
   49460    9.0055583    -15602480            0    -15597674   -58163.939 
   49470    8.9936877    -15602488            0    -15597688   -58164.451 
   49480    8.9718942    -15602494            0    -15597706   -58164.957 
   49490    8.9752225    -15602511            0    -15597721   -58165.787 
   49500    8.9788876    -15602526            0    -15597734   -58166.449 
   49510    8.9467786    -15602524            0    -15597749   -58166.452 
   49520    8.8989158    -15602514            0    -15597765   -58166.108 
   49530    8.9028855    -15602514            0    -15597763   -58165.932 
   49540     8.966194    -15602516            0    -15597731   -58165.722 
   49550    8.9988914    -15602510            0    -15597708   -58165.281 
   49560    9.0017408    -15602500            0    -15597696   -58164.765 
   49570    8.9982635    -15602488            0    -15597686    -58164.27 
   49580    8.9960583    -15602477            0    -15597676    -58163.81 
   49590    9.0102735    -15602472            0    -15597664   -58163.579 
   49600    9.0372925    -15602477            0    -15597654   -58163.632 
   49610     9.065871    -15602491            0    -15597653    -58164.01 
   49620    9.0610003    -15602506            0    -15597671   -58164.486 
   49630     9.007327    -15602507            0    -15597700   -58164.549 
   49640    8.9707965    -15602499            0    -15597712   -58164.283 
   49650    8.9587564    -15602492            0    -15597711   -58164.008 
   49660    8.9812283    -15602493            0    -15597700   -58163.961 
   49670    9.0344808    -15602507            0    -15597685    -58164.25 
   49680    9.0632984    -15602516            0    -15597679   -58164.385 
   49690    9.0197107    -15602503            0    -15597689   -58163.807 
   49700    8.9597341    -15602486            0    -15597705   -58163.197 
   49710    8.9551699    -15602491            0    -15597711    -58163.26 
   49720    8.9897014    -15602504            0    -15597706   -58163.596 
   49730    9.0208293    -15602501            0    -15597687   -58163.416 
   49740    9.0427413    -15602484            0    -15597658   -58162.713 
   49750    9.0474961    -15602471            0    -15597643   -58162.288 
   49760    9.0487232    -15602473            0    -15597644     -58162.4 
   49770    9.0496085    -15602485            0    -15597655   -58162.841 
   49780    9.0318454    -15602492            0    -15597672   -58163.107 
   49790    9.0203421    -15602500            0    -15597686   -58163.333 
   49800    9.0228628    -15602512            0    -15597697   -58163.693 
   49810    9.0375824    -15602531            0    -15597708   -58164.336 
   49820    9.0412339    -15602549            0    -15597724   -58164.985 
   49830    9.0171939    -15602555            0    -15597742   -58165.204 
   49840    8.9877298    -15602552            0    -15597755    -58165.05 
   49850    8.9680025    -15602546            0    -15597760   -58164.735 
   49860    8.9775282    -15602547            0    -15597756   -58164.633 
   49870    9.0085642    -15602553            0    -15597745   -58164.689 
   49880    9.0157476    -15602547            0    -15597735   -58164.276 
   49890    9.0050557    -15602531            0    -15597726   -58163.482 
   49900    9.0177382    -15602522            0    -15597710   -58162.812 
   49910    9.0570106    -15602518            0    -15597684    -58162.27 
   49920    9.0681837    -15602508            0    -15597668    -58161.67 
   49930    9.0499127    -15602500            0    -15597670    -58161.31 
   49940    9.0382495    -15602509            0    -15597686   -58161.644 
   49950    9.0370857    -15602531            0    -15597708   -58162.456 
   49960    9.0369009    -15602545            0    -15597722   -58162.985 
   49970    9.0157707    -15602544            0    -15597732    -58162.98 
   49980    8.9918512    -15602541            0    -15597742   -58162.927 
   49990    8.9989446    -15602551            0    -15597749   -58163.347 
   50000    9.0133929    -15602566            0    -15597756   -58163.912 
   50010    9.0023738    -15602571            0    -15597767   -58164.165 
   50020    8.9780951    -15602571            0    -15597780   -58164.183 
   50030     8.951242    -15602565            0    -15597788   -58163.911 
   50040    8.9458472    -15602557            0    -15597783   -58163.492 
   50050    8.9829016    -15602552            0    -15597758   -58163.025 
   50060    9.0155631    -15602544            0    -15597733   -58162.502 
   50070    9.0177038    -15602538            0    -15597725     -58162.1 
   50080    9.0248047    -15602541            0    -15597725   -58162.064 
   50090    9.0295587    -15602550            0    -15597731   -58162.257 
   50095    9.0271994    -15602554            0    -15597736   -58162.399 
Loop time of 31864.8 on 32 procs for 50000 steps with 179040 atoms

Performance: 0.678 ns/day, 35.405 hours/ns, 1.569 timesteps/s
72.1% CPU use with 4 MPI tasks x 8 OpenMP threads

MPI task timing breakdown:
Section |  min time  |  avg time  |  max time  |%varavg| %total
---------------------------------------------------------------
Pair    | 1229       | 9726.5     | 29567      |11824.8 | 30.52
Neigh   | 181.98     | 566.89     | 1497.8     |2279.2 |  1.78
Comm    | 428.58     | 15243      | 29879      |9945.0 | 47.84
Output  | 4.2701     | 16.722     | 20.932     | 175.8 |  0.05
Modify  | 80.451     | 6179.7     | 24137      |13189.1 | 19.39
Other   |            | 131.9      |            |       |  0.41

Nlocal:    44760 ave 61947 max 32364 min
Histogram: 2 0 0 0 0 0 1 0 0 1
Nghost:    85923.2 ave 98768 max 75828 min
Histogram: 2 0 0 0 0 0 0 1 0 1
Neighs:    9.60281e+06 ave 1.93495e+07 max 2.80159e+06 min
Histogram: 2 0 0 0 0 0 1 0 0 1

Total # of neighbors = 38411252
Ave neighs/atom = 214.54
Neighbor list builds = 897
Dangerous builds = 0

###########################################################
############### Post parameters############################
reset_timestep  	0
compute  		bins ham chunk/atom bin/3d x 130.0 4 y 0.0 4.08 z 11.79 4.312 bound x 130.0 500.0 bound y 0.0 121.83 bound z 11.79 98.0
fix  			d ham ave/chunk 1 1 10 bins density/number norm sample file bins_dens.dat
thermo_style    	custom step temp pe etotal
thermo_modify	        temp myTemp
WARNING: Temperature for thermo pressure is not for group all (../thermo.cpp:485)
thermo			100
fix            		extra ham print 2000 "$(step) $(temp) $(pe)" append iteration_info.dat 			screen no

#restart     		100000 water.restart.mpiio
dump			1 all custom 200 sandwich.dat id type x y z
run			50000
Per MPI rank memory allocation (min/avg/max) = 70.72 | 105.5 | 155 Mbytes
Step Temp PotEng TotEng 
       0     33.09283    -15602554    -15597736 
     100    32.967113    -15602563    -15597764 
     200    32.853708    -15602590    -15597807 
     300    32.901278    -15602599    -15597809 
     400    33.234707    -15602615    -15597777 
     500    33.074146    -15602651    -15597836 
     600    33.137949    -15602650    -15597826 
     700    32.891977    -15602639    -15597851 
     800    33.025587    -15602676    -15597868 
     900    32.904097    -15602674    -15597883 
    1000    32.926697    -15602693    -15597899 
    1100    33.161072    -15602674    -15597847 
    1200     32.89637    -15602715    -15597926 
    1300    33.338462    -15602700    -15597847 
    1400    32.929861    -15602743    -15597949 
    1500    32.959695    -15602726    -15597927 
    1600     32.92016    -15602772    -15597979 
    1700    33.071422    -15602798    -15597984 
    1800    33.112457    -15602810    -15597990 
    1900    33.165645    -15602814    -15597986 
    2000    32.950345    -15602858    -15598061 
    2100    32.867484    -15602838    -15598053 
    2200    33.155319    -15602864    -15598037 
    2300    33.133242    -15602875    -15598052 
    2400    32.864189    -15602896    -15598112 
    2500    32.878921    -15602895    -15598108 
    2600    32.821334    -15602902    -15598124 
    2700     32.98807    -15602964    -15598162 
    2800    33.102509    -15602921    -15598102 
    2900    32.978073    -15602993    -15598192 
    3000    32.893093    -15602975    -15598187 
    3100    33.148641    -15603011    -15598185 
    3200    33.052755    -15603006    -15598195 
    3300    32.772847    -15603035    -15598264 
    3400    32.997737    -15603066    -15598262 
    3500     32.90721    -15603059    -15598268 
    3600    33.059044    -15603051    -15598238 
    3700    33.028633    -15603121    -15598312 
    3800    33.308725    -15603082    -15598233 
    3900    33.107018    -15603101    -15598281 
    4000    33.006569    -15603114    -15598309 
    4100    33.054619    -15603110    -15598298 
    4200    32.972065    -15603137    -15598337 
    4300    32.930582    -15603123    -15598329 
    4400    33.132519    -15603138    -15598314 
    4500    33.013983    -15603197    -15598391 
    4600    33.031601    -15603182    -15598373 
    4700    32.741027    -15603168    -15598402 
    4800     32.96591    -15603155    -15598356 
    4900    33.051387    -15603169    -15598358 
    5000    33.061287    -15603180    -15598367 
    5100    33.080859    -15603182    -15598366 
    5200    33.196664    -15603215    -15598383 
    5300    32.939613    -15603236    -15598441 
    5400    33.240281    -15603244    -15598405 
    5500    32.987806    -15603219    -15598417 
    5600    32.798197    -15603269    -15598495 
    5700    33.252391    -15603241    -15598400 
    5800    33.059579    -15603292    -15598480 
    5900    33.006196    -15603279    -15598474 
    6000    33.003191    -15603290    -15598486 
    6100     33.04713    -15603275    -15598464 
    6200    33.119075    -15603300    -15598479 
    6300    32.942959    -15603321    -15598525 
    6400    32.895587    -15603303    -15598514 
    6500    33.003904    -15603327    -15598522 
    6600    32.928111    -15603361    -15598567 
    6700    33.048539    -15603345    -15598533 
    6800    33.168085    -15603391    -15598563 
    6900    33.115474    -15603380    -15598560 
    7000    33.130316    -15603392    -15598569 
    7100    33.075856    -15603361    -15598546 
    7200    33.059641    -15603410    -15598597 
    7300    32.833751    -15603386    -15598606 
    7400    32.822279    -15603423    -15598645 
    7500    33.097277    -15603391    -15598573 
    7600    32.834119    -15603435    -15598655 
    7700      33.0566    -15603427    -15598615 
    7800    33.103655    -15603438    -15598619 
    7900    33.217811    -15603441    -15598605 
    8000    32.962444    -15603455    -15598656 
    8100    33.266858    -15603468    -15598625 
    8200    32.912363    -15603519    -15598728 
    8300    32.992427    -15603501    -15598698 
    8400    32.953367    -15603485    -15598688 
    8500    33.015685    -15603520    -15598714 
    8600    32.933008    -15603522    -15598728 
    8700    32.910331    -15603484    -15598693 
    8800    32.856634    -15603510    -15598727 
    8900    32.937967    -15603541    -15598746 
    9000    33.207526    -15603566    -15598731 
    9100    32.928441    -15603531    -15598737 
    9200    32.944725    -15603526    -15598730 
    9300    32.931247    -15603547    -15598753 
    9400    32.792723    -15603580    -15598806 
    9500    32.980072    -15603583    -15598782 
    9600    32.923289    -15603552    -15598759 
    9700    33.036146    -15603595    -15598786 
    9800    32.864604    -15603576    -15598792 
    9900    33.040342    -15603593    -15598783 
   10000    33.099793    -15603601    -15598782 
   10100    32.959909    -15603600    -15598802 
   10200     33.06896    -15603646    -15598832 
   10300    33.062622    -15603613    -15598800 
   10400    32.685109    -15603625    -15598867 
   10500      32.9144    -15603657    -15598865 
   10600    33.134233    -15603705    -15598881 
   10700    33.229675    -15603675    -15598838 
   10800    32.810515    -15603700    -15598924 
   10900    33.013295    -15603688    -15598882 
   11000     32.76798    -15603727    -15598957 
   11100    32.926294    -15603701    -15598908 
   11200    33.185269    -15603745    -15598914 
   11300    32.884878    -15603738    -15598950 
   11400    32.921332    -15603750    -15598957 
   11500    32.846594    -15603741    -15598960 
   11600    33.037369    -15603728    -15598918 
   11700    32.939452    -15603785    -15598990 
   11800    32.831631    -15603748    -15598968 
   11900    32.919296    -15603788    -15598995 
   12000     33.07162    -15603807    -15598992 
   12100    32.988605    -15603821    -15599018 
   12200    33.072778    -15603790    -15598975 
   12300    32.999323    -15603794    -15598990 
   12400    33.024024    -15603793    -15598986 
   12500    33.091732    -15603804    -15598986 
   12600    32.982166    -15603820    -15599019 
   12700    33.045442    -15603806    -15598995 
   12800    32.948483    -15603816    -15599020 
   12900    32.869047    -15603829    -15599044 
   13000    32.958408    -15603823    -15599025 
   13100    33.085394    -15603844    -15599027 
   13200    33.084152    -15603796    -15598979 
   13300     32.90835    -15603868    -15599077 
   13400    32.883127    -15603844    -15599056 
   13500    32.995943    -15603829    -15599025 
   13600    33.205188    -15603895    -15599061 
   13700    32.813586    -15603861    -15599084 
   13800    32.892804    -15603875    -15599086 
   13900    32.943623    -15603870    -15599074 
   14000    32.750797    -15603878    -15599110 
   14100    33.045146    -15603886    -15599075 
   14200    33.106668    -15603914    -15599095 
   14300    32.923323    -15603900    -15599107 
   14400    33.011321    -15603922    -15599116 
   14500    33.193839    -15603896    -15599064 
   14600    32.898824    -15603888    -15599099 
   14700    32.987862    -15603919    -15599116 
   14800    33.038753    -15603903    -15599093 
   14900    32.945235    -15603902    -15599106 
   15000     33.00416    -15603970    -15599166 
   15100    32.974467    -15603926    -15599126 
   15200    32.792071    -15603933    -15599159 
   15300    32.928895    -15603935    -15599142 
   15400    33.106988    -15603919    -15599099 
   15500    32.775227    -15603977    -15599206 
   15600    33.113223    -15603954    -15599133 
   15700    32.777331    -15603961    -15599190 
   15800    33.200488    -15603935    -15599101 
   15900    33.062538    -15603990    -15599177 
   16000    33.093313    -15603963    -15599146 
   16100    32.800874    -15603956    -15599181 
   16200    32.864486    -15603938    -15599154 
   16300     32.74409    -15603982    -15599215 
   16400    32.830696    -15603966    -15599187 
   16500    32.928162    -15603988    -15599194 
   16600    32.959031    -15603998    -15599200 
   16700    33.130897    -15603969    -15599145 
   16800     33.10736    -15603991    -15599172 
   16900    33.077864    -15603991    -15599175 
   17000    33.036576    -15604017    -15599208 
   17100     32.92415    -15604008    -15599214 
   17200    32.726211    -15603998    -15599234 
   17300    32.869835    -15604006    -15599221 
   17400    32.866893    -15604026    -15599241 
   17500     32.82682    -15603969    -15599190 
   17600     32.89211    -15604015    -15599227 
   17700    32.895894    -15604025    -15599236 
   17800    33.020482    -15604011    -15599204 
   17900    32.935275    -15604024    -15599230 
   18000    33.164818    -15604026    -15599198 
   18100    32.864093    -15603982    -15599198 
   18200    33.034108    -15604015    -15599205 
   18300    32.974869    -15604013    -15599212 
   18400    32.918136    -15604035    -15599243 
   18500     33.14942    -15604005    -15599179 
   18600    33.130338    -15603999    -15599175 
   18700    33.111281    -15604008    -15599187 
   18800    32.867602    -15604019    -15599234 
   18900    33.022554    -15604038    -15599230 
   19000    32.891119    -15603992    -15599203 
   19100     32.97679    -15604010    -15599210 
   19200    33.016198    -15603990    -15599183 
   19300    33.071266    -15604049    -15599235 
   19400    33.162128    -15604005    -15599177 
   19500    32.881154    -15604076    -15599289 
   19600    33.024929    -15603993    -15599185 
   19700    33.051754    -15604050    -15599238 
   19800    32.855879    -15604041    -15599258 
   19900    33.054818    -15604032    -15599219 
   20000    32.977093    -15604006    -15599205 
   20100    32.866986    -15604064    -15599279 
   20200    33.043053    -15604055    -15599244 
   20300    32.992523    -15604021    -15599218 
   20400    33.093751    -15604064    -15599247 
   20500    33.062296    -15604049    -15599236 
   20600    33.184442    -15604080    -15599249 
   20700    33.033928    -15604060    -15599251 
   20800    33.053529    -15604039    -15599227 
   20900    33.146662    -15604044    -15599218 
   21000    33.208504    -15604046    -15599211 
   21100    32.873312    -15604061    -15599276 
   21200     33.05776    -15604028    -15599215 
   21300    32.998779    -15604057    -15599253 
   21400    33.182255    -15604088    -15599258 
   21500    32.935289    -15604048    -15599253 
   21600    33.037983    -15604050    -15599240 
   21700    33.195741    -15604027    -15599195 
   21800    32.778528    -15604077    -15599305 
   21900    33.105651    -15604033    -15599214 
   22000    32.763971    -15604066    -15599296 
   22100    33.125323    -15604040    -15599218 
   22200    33.041083    -15604045    -15599235 
   22300    33.189259    -15604059    -15599228 
   22400     33.06535    -15604048    -15599234 
   22500    32.900723    -15604049    -15599259 
   22600    32.904195    -15604020    -15599230 
   22700    32.776901    -15604034    -15599263 
   22800    33.108566    -15604055    -15599235 
   22900    33.086122    -15604052    -15599236 
   23000    33.062464    -15604021    -15599207 
   23100    32.857437    -15604019    -15599235 
   23200    33.040788    -15604053    -15599243 
   23300    32.995447    -15604050    -15599246 
   23400    33.090494    -15604023    -15599205 
   23500    33.274243    -15604067    -15599223 
   23600    33.099401    -15604036    -15599217 
   23700    32.821763    -15604070    -15599292 
   23800    32.940486    -15604042    -15599247 
   23900    33.137132    -15604079    -15599255 
   24000    32.805763    -15604042    -15599266 
   24100    32.856205    -15604069    -15599286 
   24200    32.944226    -15604059    -15599263 
   24300    33.111991    -15604074    -15599254 
   24400    33.036127    -15604069    -15599260 
   24500    33.081545    -15604080    -15599264 
   24600    32.790842    -15604042    -15599269 
   24700    33.046125    -15604084    -15599273 
   24800    33.217649    -15604053    -15599217 
   24900     32.91812    -15604056    -15599264 
   25000    32.829171    -15604035    -15599256 
   25100    32.808763    -15604057    -15599281 
   25200    33.061003    -15604079    -15599266 
   25300    33.002683    -15604076    -15599271 
   25400    32.961457    -15604077    -15599278 
   25500    32.935596    -15604050    -15599255 
   25600    33.079549    -15604066    -15599250 
   25700    33.049857    -15604052    -15599240 
   25800    33.166705    -15604090    -15599261 
   25900    32.888328    -15604082    -15599294 
   26000    33.076635    -15604041    -15599226 
   26100    32.808074    -15604054    -15599278 
   26200    32.915078    -15604050    -15599258 
   26300    33.180569    -15604063    -15599233 
   26400    33.121562    -15604017    -15599195 
   26500    32.975505    -15604073    -15599273 
   26600     32.83116    -15604044    -15599264 
   26700    32.877286    -15604047    -15599260 
   26800     32.85912    -15604081    -15599297 
   26900    33.035719    -15604042    -15599233 
   27000     32.75402    -15604075    -15599306 
   27100    32.785842    -15604058    -15599285 
   27200    32.764933    -15604055    -15599285 
   27300    33.122648    -15604067    -15599245 
   27400    33.038752    -15604055    -15599246 
   27500    33.015496    -15604074    -15599268 
   27600    33.039327    -15604066    -15599256 
   27700    32.965449    -15604092    -15599293 
   27800    32.867877    -15604074    -15599289 
   27900    32.827791    -15604076    -15599296 
   28000    33.157342    -15604086    -15599259 
   28100    33.047899    -15604055    -15599244 
   28200    32.927778    -15604097    -15599304 
   28300    32.962945    -15604059    -15599260 
   28400    33.057614    -15604032    -15599219 
   28500    33.055067    -15604048    -15599236 
   28600    32.931444    -15604069    -15599275 
   28700     33.06781    -15604086    -15599272 
   28800    32.928932    -15604109    -15599315 
   28900     32.92455    -15604099    -15599306 
   29000    32.894741    -15604092    -15599303 
   29100    33.231064    -15604077    -15599239 
   29200    32.955142    -15604089    -15599291 
   29300    32.822108    -15604080    -15599302 
   29400     33.11761    -15604071    -15599249 
   29500    32.943973    -15604047    -15599251 
   29600    32.907306    -15604064    -15599273 
   29700     33.19884    -15604073    -15599240 
   29800    32.814514    -15604066    -15599288 
   29900     33.18337    -15604068    -15599237 
   30000    32.892452    -15604091    -15599302 
   30100    33.040064    -15604068    -15599258 
   30200    32.982075    -15604106    -15599304 
   30300    32.942264    -15604058    -15599262 
   30400    32.910793    -15604076    -15599284 
   30500    32.885663    -15604112    -15599325 
   30600     33.13239    -15604077    -15599254 
   30700    33.063754    -15604060    -15599247 
   30800    32.956519    -15604068    -15599270 
   30900    32.820927    -15604047    -15599269 
   31000    32.945895    -15604079    -15599282 
   31100    32.777841    -15604059    -15599287 
   31200    32.888936    -15604060    -15599272 
   31300    33.024742    -15604082    -15599274 
   31400    33.063006    -15604092    -15599279 
   31500     33.17047    -15604069    -15599240 
   31600     33.17255    -15604060    -15599230 
   31700    32.999273    -15604110    -15599305 
   31800    33.177924    -15604074    -15599244 
   31900    32.896646    -15604085    -15599296 
   32000    33.059013    -15604084    -15599271 
   32100    32.998923    -15604110    -15599306 
   32200    32.974016    -15604129    -15599329 
   32300    32.934618    -15604090    -15599296 
   32400    32.745462    -15604115    -15599348 
   32500    33.095887    -15604086    -15599268 
   32600    32.887309    -15604089    -15599301 
   32700    33.025962    -15604025    -15599217 
   32800    32.841088    -15604093    -15599312 
   32900    33.211562    -15604074    -15599239 
   33000    32.926124    -15604106    -15599313 
   33100     33.01628    -15604115    -15599309 
   33200    33.107091    -15604082    -15599262 
   33300    33.085368    -15604119    -15599302 
   33400    33.015434    -15604071    -15599265 
   33500    33.007402    -15604119    -15599313 
   33600    33.086746    -15604056    -15599240 
   33700    32.697002    -15604092    -15599332 
   33800    33.184271    -15604072    -15599241 
   33900    32.909268    -15604069    -15599278 
   34000     33.16093    -15604092    -15599264 
   34100    32.966525    -15604059    -15599260 
   34200    32.905243    -15604077    -15599287 
   34300    33.224184    -15604080    -15599243 
   34400    33.107007    -15604126    -15599307 
   34500    33.226755    -15604090    -15599253 
   34600    32.924922    -15604068    -15599275 
   34700    32.843656    -15604072    -15599291 
   34800    33.037263    -15604092    -15599283 
   34900    33.055967    -15604078    -15599265 
   35000    33.059215    -15604070    -15599257 
   35100    32.979985    -15604100    -15599298 
   35200    33.139578    -15604079    -15599255 
   35300    33.171758    -15604114    -15599285 
   35400    33.067278    -15604071    -15599257 
   35500    33.091369    -15604104    -15599286 
   35600    33.247711    -15604103    -15599262 
   35700    33.170354    -15604116    -15599287 
   35800    32.958845    -15604107    -15599309 
   35900    32.902135    -15604076    -15599286 
   36000     33.03018    -15604098    -15599289 
   36100    32.949832    -15604134    -15599337 
   36200    33.082907    -15604100    -15599284 
   36300    33.162334    -15604079    -15599252 
   36400    32.820863    -15604116    -15599338 
   36500    33.244213    -15604062    -15599222 
   36600      32.7797    -15604084    -15599312 
   36700    32.912627    -15604078    -15599286 
   36800    33.233075    -15604091    -15599252 
   36900    32.830166    -15604084    -15599304 
   37000    33.030271    -15604074    -15599265 
   37100    33.067983    -15604099    -15599285 
   37200    32.969081    -15604095    -15599295 
   37300    32.999729    -15604059    -15599255 
   37400    32.888499    -15604106    -15599318 
   37500    32.969235    -15604087    -15599287 
   37600    33.020691    -15604086    -15599279 
   37700    33.060929    -15604084    -15599271 
   37800    33.096193    -15604104    -15599286 
   37900    33.087188    -15604067    -15599250 
   38000    32.992788    -15604080    -15599277 
   38100    33.081062    -15604083    -15599267 
   38200    32.968834    -15604079    -15599279 
   38300    33.019593    -15604102    -15599295 
   38400    33.276057    -15604059    -15599214 
   38500    33.049063    -15604113    -15599302 
   38600    32.984149    -15604129    -15599328 
   38700    32.924067    -15604075    -15599282 
   38800    32.908983    -15604122    -15599331 
   38900    33.270158    -15604084    -15599241 
   39000    32.799478    -15604110    -15599335 
   39100    33.208419    -15604102    -15599268 
   39200    33.108755    -15604067    -15599247 
   39300    32.965074    -15604119    -15599320 
   39400    33.015782    -15604103    -15599296 
   39500    33.083123    -15604118    -15599302 
   39600    32.908571    -15604104    -15599314 
   39700    33.115853    -15604106    -15599285 
   39800     33.05044    -15604074    -15599262 
   39900    33.042576    -15604128    -15599317 
   40000    33.089927    -15604097    -15599279 
   40100    33.061545    -15604085    -15599272 
   40200    32.743336    -15604132    -15599366 
   40300    33.219892    -15604097    -15599261 
   40400    33.167667    -15604105    -15599276 
   40500    32.831719    -15604098    -15599318 
   40600    32.965105    -15604091    -15599292 
   40700    33.001902    -15604101    -15599297 
   40800    32.940865    -15604103    -15599307 
   40900    32.820855    -15604134    -15599356 
   41000    32.693569    -15604083    -15599324 
   41100    32.959958    -15604101    -15599302 
   41200    32.784251    -15604126    -15599353 
   41300    32.968422    -15604105    -15599306 
   41400    32.966779    -15604111    -15599312 
   41500    33.069816    -15604087    -15599273 
   41600    32.999511    -15604091    -15599287 
   41700    32.995243    -15604077    -15599274 
   41800    33.102379    -15604100    -15599281 
   41900    33.011993    -15604113    -15599307 
   42000    32.950407    -15604124    -15599327 
   42100     33.00521    -15604092    -15599287 
   42200    33.053641    -15604120    -15599308 
   42300    32.833081    -15604100    -15599320 
   42400    33.128341    -15604129    -15599306 
   42500    33.086542    -15604089    -15599272 
   42600    33.220918    -15604135    -15599299 
   42700    33.033352    -15604095    -15599286 
   42800    32.851916    -15604087    -15599304 
   42900     32.96047    -15604069    -15599270 
   43000    33.194782    -15604075    -15599243 
   43100    33.258761    -15604121    -15599279 
   43200    33.061806    -15604089    -15599275 
   43300    33.025837    -15604124    -15599316 
   43400    33.149366    -15604106    -15599280 
   43500    33.191013    -15604093    -15599261 
   43600    32.995414    -15604089    -15599286 
   43700    32.903631    -15604113    -15599323 
   43800    32.840092    -15604100    -15599320 
   43900    33.185327    -15604095    -15599264 
   44000    33.133874    -15604121    -15599297 
   44100    33.193799    -15604117    -15599285 
   44200    33.122386    -15604068    -15599246 
   44300    33.103949    -15604113    -15599294 
   44400    32.919879    -15604114    -15599322 
   44500    33.227421    -15604087    -15599250 
   44600    33.240091    -15604096    -15599257 
   44700     32.82075    -15604097    -15599319 
   44800    32.756036    -15604139    -15599370 
   44900    32.889233    -15604120    -15599332 
   45000    32.827425    -15604141    -15599362 
   45100    32.972672    -15604134    -15599333 
   45200    33.046044    -15604132    -15599321 
   45300    32.989947    -15604096    -15599294 
   45400     32.91205    -15604085    -15599293 
   45500    33.289437    -15604103    -15599257 
   45600    32.970744    -15604134    -15599335 
   45700    32.982377    -15604089    -15599287 
   45800    33.042039    -15604123    -15599313 
   45900    33.130421    -15604126    -15599302 
   46000    32.872137    -15604130    -15599345 
   46100    32.972395    -15604105    -15599305 
   46200    33.065534    -15604149    -15599335 
   46300    33.030412    -15604114    -15599305 
   46400    32.988704    -15604142    -15599340 
   46500    33.131189    -15604134    -15599310 
   46600    32.878184    -15604134    -15599347 
   46700    33.036934    -15604146    -15599337 
   46800    33.220142    -15604109    -15599273 
   46900     32.98424    -15604143    -15599341 
   47000    33.136481    -15604110    -15599286 
   47100    32.725962    -15604136    -15599372 
   47200    32.899901    -15604090    -15599301 
   47300    33.000956    -15604113    -15599309 
   47400    33.107639    -15604092    -15599272 
   47500    33.195721    -15604121    -15599289 
   47600    32.972825    -15604075    -15599275 
   47700    32.988429    -15604098    -15599296 
   47800    33.006593    -15604114    -15599309 
   47900    33.305961    -15604124    -15599275 
   48000    33.202286    -15604120    -15599287 
   48100    33.068235    -15604106    -15599292 
   48200     33.06193    -15604121    -15599308 
   48300    33.168808    -15604103    -15599275 
   48400    32.889465    -15604105    -15599317 
   48500    33.282861    -15604112    -15599267 
   48600    33.228997    -15604118    -15599280 
   48700    32.851904    -15604096    -15599313 
   48800    33.010354    -15604129    -15599324 
   48900    32.969528    -15604133    -15599333 
   49000    33.170485    -15604091    -15599262 
   49100    32.804471    -15604151    -15599375 
   49200    33.067531    -15604125    -15599311 
   49300    33.262655    -15604108    -15599265 
   49400    33.082392    -15604106    -15599290 
   49500    32.958805    -15604101    -15599303 
   49600    32.763053    -15604101    -15599332 
   49700       33.032    -15604149    -15599340 
   49800    33.061753    -15604134    -15599321 
   49900     32.89602    -15604110    -15599321 
   50000    32.911658    -15604149    -15599358 
Loop time of 32040 on 32 procs for 50000 steps with 179040 atoms

Performance: 0.674 ns/day, 35.600 hours/ns, 1.561 timesteps/s
71.8% CPU use with 4 MPI tasks x 8 OpenMP threads

MPI task timing breakdown:
Section |  min time  |  avg time  |  max time  |%varavg| %total
---------------------------------------------------------------
Pair    | 1181.1     | 9452       | 28763      |11674.8 | 29.50
Neigh   | 173.93     | 541.6      | 1431       |2227.3 |  1.69
Comm    | 544.43     | 14920      | 29054      |9746.7 | 46.57
Output  | 86.726     | 151.56     | 173.3      | 304.0 |  0.47
Modify  | 169.02     | 6327.9     | 23574      |12525.7 | 19.75
Other   |            | 646.7      |            |       |  2.02

Nlocal:    44760 ave 61989 max 32364 min
Histogram: 2 0 0 0 0 0 1 0 0 1
Nghost:    85892.5 ave 98724 max 75828 min
Histogram: 2 0 0 0 0 0 0 1 0 1
Neighs:    9.63685e+06 ave 1.94722e+07 max 2.80159e+06 min
Histogram: 2 0 0 0 0 0 1 0 0 1

Total # of neighbors = 38547386
Ave neighs/atom = 215.3
Neighbor list builds = 859
Dangerous builds = 0


Total wall time: 17:46:53
