LAMMPS (3 Mar 2020)
  using 8 OpenMP thread(s) per MPI task
## binning x:60-160, y:0.0-34.4, z:2.8-29.0
## binning x:60-90 x:120-150

############################################################
#####	 	    Argon sandwich	   	   #########
############################################################
variable		T equal 1.0
variable 		V equal vol
variable 		dt equal 0.002

units			lj
atom_style		bond
special_bonds 		fene

dimension 		3
boundary		f p f

read_data         	tank_atomdata
  orthogonal box = (0 0 0) to (39.2 34.7 48.2)
  2 by 1 by 2 MPI processor grid
  reading atoms ...
  40455 atoms
  scanning bonds ...
  1 = max bonds/atom
  reading bonds ...
  26040 bonds
  2 = max # of 1-2 neighbors
  2 = max # of special neighbors
  special bonds CPU = 0.00380802 secs
  read_data CPU = 0.0910368 secs
#read_restart 		water.restart.mpiio

############################################################
#############INTERACTION PARAMETERS#########################
group                   bread     type 2
10695 atoms in group bread
group                   ham       type 1
29760 atoms in group ham

mass                    2       1.0  ## atomic mass of platinum
mass                    1       1.0  ## atomic mass of platinum

neighbor        	0.3 bin
neigh_modify		every 1 delay 10 check yes
################### L-J potential #####################
pair_style              lj/cut  2.5

pair_coeff              1 1  1.0 1.0 2.5
pair_coeff              1 2  0.8 1.0 2.5
pair_coeff              2 2  1.0 1.0 2.5
#################### FENE bond #########################
bond_style 		fene
bond_coeff 		1 10.2478 1.4 1.0 1.0
#################### Harmonic potential ##################
fix 			wall bread spring/self 10000.0

thermo 			10
min_style 		fire
min_modify 		dmax 0.005
minimize 		1.0e-5 1.0e-7 500 10000
WARNING: Using 'neigh_modify every 1 delay 0 check yes' setting during minimization (../min.cpp:190)
Neighbor list info ...
  update every 1 steps, delay 0 steps, check yes
  max neighbors/atom: 2000, page size: 100000
  master list distance cutoff = 2.8
  ghost atom cutoff = 2.8
  binsize = 1.4, bins = 29 25 35
  1 neighbor lists, perpetual/occasional/extra = 1 0 0
  (1) pair lj/cut, perpetual
      attributes: half, newton on
      pair build: half/bin/newton
      stencil: half/bin/3d/newton
      bin: standard
  Parameters for fire: 
    dmax delaystep dtgrow dtshrink alpha0 alphashrink tmax tmin    integrator halfstepback 
    0.005        20    1.1      0.5   0.25        0.99   10 0.02 eulerimplicit          yes 
Per MPI rank memory allocation (min/avg/max) = 12.22 | 16.23 | 20.23 Mbytes
Step Temp E_pair E_mol TotEng Press 
       0            0   -4.2705479    5.6773841    1.4068361   -3.5694908 
      10  0.058837147   -4.2905552    5.5711673    1.3688656   -3.2560534 
      20   0.11283376   -4.2983335    5.4479135    1.3188265    -2.684913 
      30   0.16493527   -4.3088693    5.3460069    1.2845344   -2.1723909 
      40   0.21149901   -4.3311974    5.2773956    1.2634389   -1.6352422 
      50   0.24065351   -4.3686012    5.2531981    1.2455682   -1.0759959 
      60   0.22830719   -4.4062575    5.2640657    1.2002606   -0.6535287 
      70   0.12041177    -4.422301    5.2723577    1.0306699  -0.59087817 
      80   0.10674174   -4.4267158     5.271933    1.0053259  -0.61488264 
      90   0.10693546   -4.4300748    5.2702714    1.0005958   -0.6503504 
     100   0.10797196   -4.4345881    5.2696923    0.9970582  -0.66768146 
     110   0.10881872   -4.4401905    5.2698359   0.99286937  -0.67279633 
     120   0.10935039   -4.4461798    5.2701968   0.98803859  -0.67602425 
     130   0.11011227   -4.4527566    5.2704912    0.9828989  -0.68292745 
     140   0.11131298   -4.4590284    5.2705449   0.97848185  -0.69459451 
     150   0.11301715   -4.4655352    5.2702874   0.97427374  -0.71245921 
     160    0.1154386   -4.4730257    5.2696531   0.96978101  -0.73890294 
     170   0.11942672   -4.4827847    5.2684747   0.96482564  -0.78003346 
     180   0.12573951    -4.496542    5.2665315   0.95859414  -0.84635458 
     190   0.13267788   -4.5138629    5.2641606   0.94930961  -0.93628973 
     200   0.13917612   -4.5342371     5.261902   0.93642389   -1.0412451 
     210   0.14584537   -4.5593487    5.2600879   0.91950186   -1.1602329 
     220   0.15075259   -4.5872685    5.2591501   0.89800488   -1.2760946 
     230   0.15268187   -4.6157935    5.2588257   0.87204931   -1.3734257 
     240   0.15259152    -4.643918    5.2585641   0.84352777   -1.4479973 
     250   0.15125566   -4.6717733    5.2581797   0.81328433   -1.5030335 
     260   0.14756984   -4.6973247    5.2577841   0.78180871   -1.5395506 
     270    0.1418722    -4.720398    5.2575459     0.749951    -1.561041 
     280   0.13510639   -4.7417131    5.2574913   0.71843273   -1.5707794 
     290   0.12758402   -4.7608789    5.2575313   0.68802371   -1.5720922 
     300   0.12048916   -4.7786053    5.2576458    0.6597698   -1.5675635 
     310   0.11394576   -4.7949198    5.2578411   0.63383573   -1.5596562 
     320   0.10809681   -4.8101144    5.2581216    0.6101484   -1.5494381 
     330   0.10288226   -4.8243419    5.2584715   0.58844916   -1.5376705 
     340  0.098532314   -4.8379711    5.2589023   0.56872606   -1.5237285 
     350  0.094826686   -4.8510465    5.2594571   0.55064715   -1.5077912 
     360  0.091356167   -4.8630242    5.2600678    0.5340745   -1.4916913 
     370  0.088066429   -4.8735537    5.2605683   0.51911094   -1.4778026 
     380  0.085526567   -4.8833344    5.2609113   0.50586356   -1.4657778 
     390  0.084061004   -4.8932117    5.2611307   0.49400742   -1.4550961 
     400  0.083865039    -4.903862    5.2613029   0.48323537      -1.4454 
     410  0.084263117   -4.9144865    5.2614618   0.47336692    -1.437882 
     420  0.085043695   -4.9250034    5.2616187   0.46417766    -1.432443 
     430  0.085571078   -4.9345469     5.261849   0.45565562   -1.4288673 
     440  0.086143219   -4.9436029    5.2622132   0.44782197   -1.4263817 
     450  0.086950306   -4.9524787    5.2626797   0.44062316   -1.4244882 
     460  0.088051702   -4.9612006    5.2631457   0.43401941   -1.4227313 
     470   0.08916681   -4.9694052    5.2635202   0.42786192    -1.420755 
     480  0.090493532   -4.9774181    5.2637996   0.42211838   -1.4177787 
     490  0.092321324   -4.9857673    5.2640144   0.41672559   -1.4128538 
     500  0.093954867    -4.993481     5.264181   0.41162885   -1.4062691 
Loop time of 5.84853 on 32 procs for 500 steps with 40455 atoms

92.5% CPU use with 4 MPI tasks x 8 OpenMP threads

Minimization stats:
  Stopping criterion = max iterations
  Energy initial, next-to-last, final = 
         1.40683614769     0.271415693015      0.27070003813
  Force two-norm initial, final = 2626.65 805.165
  Force max component initial, final = 26.2078 31.8302
  Final line search alpha, max atom move = 0 0
  Iterations, force evaluations = 500 501

MPI task timing breakdown:
Section |  min time  |  avg time  |  max time  |%varavg| %total
---------------------------------------------------------------
Pair    | 1.8379     | 2.9207     | 4.1541     |  60.8 | 49.94
Bond    | 0.11314    | 0.16895    | 0.23507    |  12.8 |  2.89
Neigh   | 0.2426     | 0.25111    | 0.25963    |   1.7 |  4.29
Comm    | 0.48555    | 1.9242     | 3.1762     |  80.9 | 32.90
Output  | 0.027201   | 0.027933   | 0.028611   |   0.4 |  0.48
Modify  | 0.012447   | 0.017927   | 0.025698   |   4.2 |  0.31
Other   |            | 0.5377     |            |       |  9.19

Nlocal:    10113.8 ave 13360 max 7057 min
Histogram: 2 0 0 0 0 0 0 0 1 1
Nghost:    5131.25 ave 6145 max 4232 min
Histogram: 2 0 0 0 0 0 0 0 1 1
Neighs:    345942 ave 477164 max 222521 min
Histogram: 2 0 0 0 0 0 0 0 1 1

Total # of neighbors = 1383766
Ave neighs/atom = 34.2051
Ave special neighs/atom = 1.28736
Neighbor list builds = 16
Dangerous builds = 0

############################################################
#############EQUILIBRATION PARAMETERS######################
velocity 		all create ${T} 12345
velocity 		all create 1 12345
compute 		myTemp all temp
fix			1 all nvt temp ${T} ${T} 100.0
fix			1 all nvt temp 1 ${T} 100.0
fix			1 all nvt temp 1 1 100.0
fix 			2 all langevin 1 1 10 100000
fix 			30 all wall/reflect zhi EDGE
fix 			300 all wall/reflect zlo EDGE
fix 			40 all wall/reflect xhi EDGE
fix 			400 all wall/reflect xlo EDGE
timestep 		${dt}
timestep 		0.002
thermo 			100

dump 			1 all custom 200 equ_tank.dat id type x y z
run 			50000
Per MPI rank memory allocation (min/avg/max) = 12.22 | 16.32 | 20.61 Mbytes
Step Temp E_pair E_mol TotEng Press 
     500            1    -4.993481     5.264181     1.770663  -0.84722155 
     600   0.46923769   -4.7073158    5.4390419    1.4355653  -0.37983447 
     700   0.62549005    -4.699714    5.4285994    1.6670972  -0.53942208 
     800   0.62684748   -4.7063167    5.4393373    1.6732686   -0.5664129 
     900   0.54481694   -4.7056095    5.4466165    1.5582122  -0.65118545 
    1000   0.68631693   -4.7031495    5.4511436    1.7774441  -0.55586933 
    1100   0.57698804   -4.7133289    5.4518294    1.6039611   -0.6359193 
    1200   0.67431083   -4.7166022    5.4534762    1.7483152  -0.57715607 
    1300   0.64844755   -4.7162931    5.4616187    1.7179729   -0.5712966 
    1400   0.65196938   -4.7236621    5.4642335    1.7185013  -0.54850251 
    1500   0.68799636   -4.7220046    5.4668629    1.7768273  -0.48898583 
    1600   0.68354467   -4.7243939    5.4723961    1.7732938  -0.45812725 
    1700   0.68329034   -4.7314324    5.4768486    1.7703263  -0.45834425 
    1800   0.71656981   -4.7322943    5.4811126    1.8236464  -0.41605517 
    1900    0.7159287   -4.7409309     5.484156    1.8170915   -0.4097837 
    2000   0.71135686   -4.7475255    5.4848043    1.8042876  -0.39343622 
    2100   0.76771611   -4.7488673     5.488136    1.8908144  -0.32238427 
    2200   0.71238552   -4.7552569    5.4908472    1.8041421  -0.33453061 
    2300   0.77646483   -4.7627344    5.4929789     1.894913  -0.27160575 
    2400   0.76544146    -4.770505    5.4991368    1.8767655  -0.22486393 
    2500   0.75493619   -4.7704163    5.5004671    1.8624271  -0.15947768 
    2600   0.80415206   -4.7821928    5.5036659    1.9276713   -0.1243165 
    2700   0.77304088   -4.7862282     5.506231    1.8795355 -0.059697663 
    2800   0.80816256   -4.7948437    5.5075116    1.9248817 -0.025974634 
    2900   0.81215627   -4.8026183     5.508716     1.924302 0.0021205821 
    3000   0.81280075   -4.8056837    5.5121784    1.9256657  0.042051016 
    3100   0.82022798   -4.8059167    5.5162885    1.9406833   0.13695628 
    3200   0.83143045   -4.8134897    5.5175141    1.9511392   0.16231539 
    3300    0.8271803   -4.8143081    5.5200174    1.9464491   0.16346482 
    3400     0.841054   -4.8166642    5.5236406    1.9685262   0.19691647 
    3500   0.84134178    -4.814189    5.5212356    1.9690281   0.21480824 
    3600   0.83944031   -4.8135041    5.5252037    1.9708289   0.24713372 
    3700   0.85410449   -4.8126654    5.5277376    1.9961973    0.2416594 
    3800    0.8431728   -4.8118484    5.5297759    1.9826555   0.26751234 
    3900   0.85667824   -4.8095716    5.5299716    2.0053856   0.28164829 
    4000    0.8573611   -4.8106721    5.5364411    2.0117789   0.25128101 
    4100   0.85261317   -4.8006788    5.5300496    2.0082589   0.23494566 
    4200   0.86342136   -4.7938929    5.5273717    2.0285788   0.20160495 
    4300   0.86082997   -4.7938479    5.5318607    2.0292258    0.1653589 
    4400   0.85661323   -4.7843604     5.533058    2.0335858   0.15279772 
    4500   0.86570174   -4.7745094    5.5321617    2.0561728   0.11475922 
    4600   0.85976177    -4.773814    5.5300346    2.0458315  0.055263318 
    4700   0.86352287   -4.7619287    5.5289634     2.062287 0.0018597232 
    4800   0.86262601   -4.7558587    5.5338736    2.0719219 -0.028403028 
    4900    0.8576145   -4.7499131    5.5254646    2.0619415 -0.042389692 
    5000   0.86375693   -4.7348492    5.5292208     2.089975 -0.025930078 
    5100   0.85603962   -4.7318196    5.5285376    2.0807457 -0.093350217 
    5200   0.85948691   -4.7159629    5.5258567    2.0990922 -0.093877574 
    5300   0.86181738   -4.7105283    5.5235395    2.1057053  -0.12674354 
    5400   0.85576955     -4.70234    5.5262444     2.107527  -0.15516321 
    5500   0.86104539   -4.6992689    5.5259765    2.1182437  -0.14083732 
    5600   0.86158815   -4.6955695    5.5277971    2.1245779  -0.14876876 
    5700   0.85999618   -4.6880468     5.527171    2.1290866  -0.18050811 
    5800   0.86056369    -4.677331    5.5255092    2.1389918  -0.17355626 
    5900   0.86645446   -4.6738883    5.5236226    2.1493839  -0.19645423 
    6000   0.86016169   -4.6694699    5.5232924    2.1440332  -0.21707442 
    6100   0.87537685   -4.6640544    5.5218136     2.170792  -0.19336902 
    6200   0.86614974   -4.6619939    5.5236207    2.1608193  -0.22504372 
    6300   0.86705711   -4.6488281    5.5247065    2.1764319  -0.19240858 
    6400   0.87124609   -4.6502081    5.5258644    2.1824931  -0.20948575 
    6500   0.86315059   -4.6417963    5.5279247    2.1808223  -0.18112066 
    6600   0.87958506   -4.6439267    5.5251197     2.200538  -0.16312224 
    6700   0.87252043   -4.6426152    5.5257007    2.1918338  -0.15770439 
    6800   0.88462438   -4.6428016    5.5255173    2.2096195  -0.15998705 
    6900   0.88330648   -4.6419227    5.5271222    2.2101265  -0.18271066 
    7000   0.88460735   -4.6389438    5.5309119    2.2188463  -0.17197373 
    7100   0.88101582   -4.6319915    5.5332372    2.2227368  -0.15683201 
    7200   0.88176611   -4.6296803    5.5339485    2.2268846  -0.16474065 
    7300     0.887663   -4.6261278    5.5293288    2.2346626  -0.16560646 
    7400   0.88664589   -4.6252553    5.5319596    2.2366403  -0.10113524 
    7500   0.89535112   -4.6274236    5.5290049    2.2445748   -0.1339615 
    7600   0.89281964   -4.6275489    5.5341949    2.2458423  -0.15424702 
    7700   0.89723734   -4.6194152    5.5337042    2.2601117  -0.10794131 
    7800   0.89462794    -4.620444    5.5363429    2.2578076  -0.11861531 
    7900     0.896904   -4.6112428    5.5379278    2.2720077  -0.10705567 
    8000   0.90478918   -4.6146931    5.5355836    2.2780408  -0.14711402 
    8100   0.90150656   -4.6094206    5.5361968    2.2790026  -0.16098197 
    8200   0.90613035   -4.6037123     5.536713    2.2921626   -0.1815184 
    8300   0.89898783   -4.5961771    5.5393441    2.2916155   -0.1643526 
    8400   0.90822509   -4.5917718    5.5353787    2.3059109  -0.16196687 
    8500   0.90728306   -4.5913888    5.5375304    2.3070326  -0.12909495 
    8600   0.91044047   -4.5873279    5.5389837    2.3172827  -0.15017443 
    8700   0.91193214   -4.5840263    5.5345834    2.3184215  -0.13820746 
    8800   0.91278156   -4.5850393    5.5383313    2.3224305  -0.16309046 
    8900   0.91677097   -4.5801426    5.5373558    2.3323356   -0.1526599 
    9000   0.91289459   -4.5723966    5.5381277    2.3350391  -0.14923108 
    9100   0.91438946   -4.5720632    5.5424804    2.3419675  -0.14230866 
    9200   0.91683526   -4.5654654    5.5387444    2.3484979  -0.15424437 
    9300   0.91318514   -4.5614752    5.5377437    2.3460123  -0.13684667 
    9400   0.91861311   -4.5605535    5.5400958    2.3574279  -0.14517107 
    9500   0.91519194   -4.5541056    5.5399814    2.3586297  -0.17221969 
    9600   0.91833529   -4.5561172     5.541111    2.3624627  -0.17218414 
    9700   0.92364058    -4.549051    5.5380873     2.374463  -0.16839897 
    9800   0.91873345   -4.5492032    5.5432947    2.3721576  -0.19170122 
    9900   0.92605625   -4.5468784      5.54047    2.3826417  -0.17272237 
   10000    0.9251664   -4.5432323    5.5419924    2.3864754  -0.18478541 
   10100   0.92462255   -4.5429413    5.5433263    2.3872845  -0.17961429 
   10200    0.9253747   -4.5358609    5.5472089    2.3993757  -0.16891194 
   10300   0.92765266   -4.5377253    5.5464629    2.4001822  -0.17064777 
   10400   0.92999894   -4.5347989    5.5492604    2.4094254  -0.15252592 
   10500   0.93176965   -4.5307943    5.5436022    2.4104278  -0.17182844 
   10600   0.93190338   -4.5256544    5.5452471    2.4174132  -0.18727104 
   10700   0.92729827   -4.5185762     5.547494    2.4198308  -0.16761737 
   10800   0.92921826   -4.5167984     5.547493    2.4244875  -0.17859685 
   10900   0.93493136   -4.5172804    5.5443454    2.4294274  -0.16740893 
   11000   0.93245073   -4.5124919    5.5442582    2.4304079  -0.17177272 
   11100   0.93775714    -4.511609    5.5450914    2.4400833  -0.18407323 
   11200   0.93369466   -4.5080492     5.544774    2.4372321  -0.17596478 
   11300   0.93881138   -4.5078104    5.5451783    2.4455502  -0.16247793 
   11400   0.93735833   -4.5066828    5.5455159    2.4448359  -0.16730997 
   11500   0.93540019   -4.5020141    5.5456885      2.44674  -0.20779157 
   11600   0.93787576   -4.4985009    5.5490538    2.4573317  -0.20833281 
   11700   0.93007215   -4.4882347    5.5497362    2.4565752  -0.19509023 
   11800   0.93863749   -4.4898947    5.5465876    2.4646144  -0.22971822 
   11900   0.93364119   -4.4868102    5.5471928    2.4608098  -0.21633443 
   12000    0.9358169   -4.4814119    5.5479654    2.4702441  -0.21510785 
   12100   0.93562071    -4.480005    5.5463152    2.4697065  -0.19598621 
   12200   0.93974936   -4.4845257    5.5457686    2.4708321  -0.23262519 
   12300   0.94189978   -4.4813142    5.5463785     2.477879  -0.23018652 
   12400   0.93820971   -4.4807532    5.5491441    2.4756706  -0.21812258 
   12500   0.94538328   -4.4805509    5.5475937    2.4850827  -0.24346672 
   12600    0.9415988   -4.4715184    5.5475684    2.4884133  -0.20850283 
   12700    0.9413284   -4.4719615    5.5469468     2.486943  -0.26650115 
   12800   0.93984064   -4.4685829    5.5531794    2.4943227  -0.22865845 
   12900   0.93611008   -4.4659228    5.5536941    2.4919017  -0.23157497 
   13000   0.94582612   -4.4624738    5.5454226    2.5016529  -0.23484853 
   13100   0.94704734   -4.4668092    5.5520908    2.5058174  -0.20389919 
   13200   0.94503661    -4.459549    5.5478626    2.5058335  -0.16485048 
   13300   0.94431628    -4.453861    5.5511079    2.5136864  -0.18284626 
   13400   0.94440908   -4.4586161    5.5518542    2.5098167  -0.22491893 
   13500   0.95089659   -4.4530204    5.5505893    2.5238785  -0.18930105 
   13600   0.94720815   -4.4488115    5.5498848    2.5218504  -0.17479314 
   13700   0.94815115   -4.4449215    5.5506414    2.5279115  -0.18244201 
   13800   0.95434361    -4.449081    5.5512903    2.5336893  -0.18976457 
   13900   0.95111847   -4.4445304    5.5499436    2.5320557  -0.20785567 
   14000   0.95041843   -4.4439453    5.5544494    2.5360965  -0.20534915 
   14100   0.95139487   -4.4441334    5.5555432    2.5384668    -0.209618 
   14200    0.9540252   -4.4463204    5.5521787    2.5368608  -0.19983421 
   14300    0.9545039   -4.4398671    5.5538412    2.5456946  -0.19824292 
   14400   0.95597774   -4.4432019     5.557902    2.5486313   -0.2392625 
   14500   0.95392805   -4.4378838    5.5567917    2.5497646  -0.21132407 
   14600   0.95999113   -4.4430082    5.5614943    2.5584372  -0.21460083 
   14700   0.95641661   -4.4382758    5.5590539    2.5553676  -0.20065446 
   14800   0.95913487   -4.4364854    5.5601805    2.5623618  -0.18670988 
   14900    0.9576963   -4.4334289     5.556174     2.559254  -0.17368791 
   15000   0.96099611   -4.4387181    5.5578623    2.5606028  -0.17441774 
   15100   0.96471614   -4.4343151    5.5541382    2.5668616    -0.167218 
   15200   0.96179462    -4.431326    5.5556867     2.567017  -0.17077357 
   15300   0.96234161   -4.4312557    5.5595862    2.5718073  -0.20254647 
   15400   0.95832276   -4.4278299    5.5590106    2.5686292   -0.1880871 
   15500   0.96397082   -4.4319037    5.5622862    2.5763029  -0.21180793 
   15600   0.96132757   -4.4257599    5.5569928    2.5731885  -0.21925022 
   15700   0.96118019   -4.4212138    5.5595845    2.5801053  -0.23334874 
   15800   0.96087578   -4.4237167    5.5628375    2.5803988   -0.2203737 
   15900   0.96537363   -4.4201754    5.5553629    2.5832121  -0.20289115 
   16000   0.96735724   -4.4192136    5.5548759    2.5866623  -0.24247633 
   16100     0.958558   -4.4147893    5.5609565    2.5839686  -0.20983987 
   16200   0.96392658    -4.413983    5.5607062    2.5925773  -0.26228315 
   16300   0.95937594   -4.4052714    5.5579306    2.5916875  -0.22912584 
   16400   0.96596308   -4.4090034    5.5558717    2.5957771   -0.2293968 
   16500   0.96430734   -4.4066614    5.5594634    2.5992273  -0.23666105 
   16600   0.95943447   -4.4025869    5.5618233    2.5983526  -0.21917679 
   16700   0.96436712   -4.4040775    5.5608146     2.603252  -0.25358696 
   16800   0.96283978   -4.4042774    5.5626441    2.6025906  -0.20616764 
   16900   0.97017233   -4.4073049    5.5608017    2.6087192  -0.21078187 
   17000   0.96622789   -4.4000653     5.559117    2.6083577  -0.22461668 
   17100   0.97329292    -4.405921    5.5548903    2.6088726  -0.24028242 
   17200   0.96941818   -4.4031101    5.5618538     2.612835  -0.21855766 
   17300   0.96862962   -4.3979069     5.563884    2.6188856  -0.19983715 
   17400     0.970382   -4.4019817    5.5640218    2.6175771  -0.25208547 
   17500    0.9690396   -4.3946507    5.5624671    2.6213399  -0.21384345 
   17600   0.97573518   -4.3969279    5.5618697    2.6285084  -0.22346771 
   17700   0.97178305     -4.39895    5.5637239    2.6224125  -0.21315627 
   17800   0.97606437   -4.3924838    5.5612036    2.6327801  -0.16348309 
   17900   0.97411933   -4.3909089    5.5614929    2.6317268  -0.19882255 
   18000   0.97406052   -4.3901848    5.5618932    2.6327631   -0.2161005 
   18100   0.97732633   -4.3914437    5.5632498    2.6377594  -0.21929092 
   18200   0.97745443   -4.3891801    5.5618651    2.6388304  -0.21369922 
   18300   0.97445149   -4.3857418    5.5650182    2.6409175  -0.20640343 
   18400   0.98027344   -4.3923158    5.5616073    2.6396653  -0.23946479 
   18500   0.98086938   -4.3894931    5.5638771    2.6456517  -0.23156737 
   18600   0.97843866    -4.386134    5.5646372    2.6461249  -0.23934566 
   18700   0.97900441    -4.389368    5.5672757     2.646378  -0.22546268 
   18800   0.98190265   -4.3865187    5.5617363    2.6480351  -0.22470336 
   18900   0.98050214   -4.3886011      5.56632    2.6484358   -0.2203806 
   19000    0.9818372   -4.3838747    5.5644648    2.6533095  -0.21696922 
   19100   0.97692397   -4.3823619    5.5672949    2.6502828  -0.21686733 
   19200   0.98073314   -4.3826129    5.5636569    2.6521073   -0.2046725 
   19300   0.97712857   -4.3807033    5.5687345    2.6536879  -0.19687003 
   19400   0.98564108    -4.390353    5.5638673    2.6519394  -0.23344017 
   19500   0.98139862   -4.3782224     5.561564    2.6554031  -0.20370704 
   19600   0.98163089   -4.3804562    5.5636166    2.6555703   -0.2467169 
   19700   0.97930199   -4.3794626     5.567609    2.6570631  -0.23422098 
   19800   0.98168292   -4.3771244    5.5649797    2.6603432  -0.19884006 
   19900   0.98060472   -4.3771637    5.5655725    2.6592796  -0.21800924 
   20000   0.97940266   -4.3768171    5.5635944    2.6558449    -0.248337 
   20100   0.97969201   -4.3736301    5.5637746    2.6596462  -0.23294825 
   20200   0.98220664   -4.3746602    5.5642728    2.6628861  -0.21218859 
   20300   0.98263465   -4.3767724    5.5634953    2.6606385  -0.24322546 
   20400   0.98206968   -4.3776424    5.5711095    2.6665352  -0.21722594 
   20500   0.97820679   -4.3712155    5.5621601    2.6582185  -0.20949912 
   20600   0.98541859   -4.3760189    5.5656941    2.6677666  -0.22846984 
   20700   0.98409375   -4.3788591    5.5690417    2.6662867  -0.20202393 
   20800   0.98391617   -4.3745378    5.5679369    2.6692369   -0.2074793 
   20900   0.98726152   -4.3768628    5.5695307    2.6735236  -0.23967102 
   21000   0.97758544   -4.3670334    5.5697262    2.6690347  -0.19300118 
   21100   0.98591488   -4.3727039    5.5702716    2.6764034  -0.21257194 
   21200   0.98152394   -4.3716508    5.5720189    2.6726176  -0.19413697 
   21300    0.9899597   -4.3750583    5.5645418    2.6743863  -0.20076007 
   21400   0.98521697   -4.3676835    5.5678726     2.677978  -0.15369553 
   21500   0.98403486   -4.3682399    5.5676804    2.6754562  -0.18756579 
   21600   0.98847658   -4.3656686    5.5639757    2.6809853   -0.2058327 
   21700   0.98546833    -4.361347    5.5643833    2.6812023  -0.19022011 
   21800   0.98044338   -4.3603109    5.5682134    2.6785312  -0.23642112 
   21900   0.98576345   -4.3595514    5.5662983    2.6853555  -0.26367118 
   22000   0.98835952   -4.3632761    5.5658752    2.6851017  -0.27257098 
   22100   0.98311908   -4.3536547    5.5670122    2.6879996  -0.22736697 
   22200   0.98678263   -4.3528544    5.5646435    2.6919265  -0.24440475 
   22300   0.98444584   -4.3520706    5.5670375    2.6915992  -0.27739941 
   22400   0.98308562   -4.3462795    5.5683282    2.6966406  -0.22397134 
   22500   0.98675562   -4.3538971      5.56735    2.6935497  -0.26077652 
   22600   0.98642385   -4.3496152    5.5690206    2.6990045  -0.25324746 
   22700    0.9811816   -4.3458457    5.5703121    2.6962024  -0.28404146 
   22800   0.98416559   -4.3485967    5.5687337    2.6963489  -0.25950159 
   22900   0.98873008   -4.3457164    5.5653581    2.7027002  -0.22969684 
   23000   0.98224947   -4.3467998    5.5666973    2.6932353  -0.24748744 
   23100    0.9865683   -4.3446514    5.5694371    2.7046016  -0.26890786 
   23200   0.98538053   -4.3511734     5.568397    2.6952578  -0.26383679 
   23300   0.98550013   -4.3490646    5.5718613    2.7010103  -0.24333902 
   23400   0.99312437    -4.354305    5.5660534    2.7013982  -0.27410825 
   23500   0.98209522   -4.3499302    5.5748666    2.6980428  -0.24904706 
   23600    0.9919866   -4.3479257    5.5645904    2.7046078  -0.24455841 
   23700   0.98283532   -4.3414836    5.5653562    2.6980892  -0.22724891 
   23800   0.98590545   -4.3455614    5.5707765    2.7040368  -0.21798249 
   23900   0.98140104    -4.344139    5.5757571    2.7036832   -0.2345181 
   24000   0.98508088   -4.3429594    5.5690363    2.7036617  -0.25470035 
   24100    0.9861469   -4.3406028     5.566611     2.705192  -0.20317313 
   24200   0.98798571   -4.3437262    5.5698329    2.7080486  -0.21746869 
   24300   0.98394126   -4.3425232    5.5720504    2.7054026  -0.23800738 
   24400   0.98901319   -4.3394801     5.571037    2.7150401  -0.25606439 
   24500   0.98912407   -4.3414506    5.5708137    2.7130125  -0.26580193 
   24600   0.98503156   -4.3436825    5.5758438    2.7096721  -0.26658542 
   24700   0.98923735   -4.3369211    5.5711742    2.7180725  -0.23066664 
   24800   0.98665488   -4.3393675    5.5707722    2.7113505   -0.2488265 
   24900   0.99476887   -4.3410331    5.5698456    2.7209289  -0.24197211 
   25000   0.98814056   -4.3367116    5.5721649    2.7176275  -0.21320898 
   25100   0.99503899     -4.34214    5.5708427    2.7212244  -0.22349355 
   25200   0.99726126   -4.3409759    5.5685375    2.7234165  -0.23584693 
   25300    0.9927164   -4.3418538    5.5710552    2.7182393  -0.22074371 
   25400   0.99377387   -4.3397326    5.5726406     2.723532  -0.21333015 
   25500    0.9930687   -4.3399011    5.5712686    2.7209337  -0.22539275 
   25600   0.99390364   -4.3420868    5.5734537    2.7221855   -0.2292333 
   25700   0.99264898   -4.3429218    5.5777537    2.7237686  -0.21855684 
   25800   0.99360507   -4.3411847    5.5721388    2.7213248  -0.22414921 
   25900   0.99343265   -4.3381421    5.5710459     2.723016  -0.19322885 
   26000   0.99489732   -4.3408182    5.5735181     2.725009  -0.24599359 
   26100    0.9951596   -4.3383337    5.5731199    2.7274887  -0.26387725 
   26200   0.99412232   -4.3362745    5.5723987    2.7272708  -0.22833226 
   26300   0.99712819   -4.3411714    5.5714585    2.7259424  -0.23920126 
   26400   0.99961466   -4.3425036    5.5726105    2.7294918  -0.27327045 
   26500   0.99395144   -4.3365444    5.5725536    2.7268996  -0.22439885 
   26600   0.99098681   -4.3333808     5.572377    2.7254396  -0.22479148 
   26700   0.99857512    -4.333347    5.5710436    2.7355222  -0.20502805 
   26800   0.99217069   -4.3325046    5.5756183     2.731333  -0.19416003 
   26900   0.99697461   -4.3375698    5.5754587    2.7333138  -0.21444098 
   27000   0.99469291   -4.3346701    5.5753765    2.7327089  -0.23336371 
   27100   0.99661897    -4.336403    5.5736111    2.7320997  -0.26192781 
   27200   0.99447841   -4.3344725    5.5759619    2.7331702  -0.26133578 
   27300   0.99039469   -4.3294207    5.5760141    2.7321488  -0.26072789 
   27400   0.99266968   -4.3336531    5.5747217    2.7300364  -0.27212239 
   27500   0.98980893   -4.3308628     5.576975    2.7307889  -0.26790562 
   27600   0.99271086   -4.3269571    5.5703078    2.7323801  -0.22474109 
   27700   0.99521551    -4.331776    5.5716558    2.7326661  -0.26920021 
   27800   0.99381802   -4.3321758    5.5782697    2.7367841  -0.27373539 
   27900   0.99095223   -4.3322454    5.5769638      2.73111  -0.26651612 
   28000    0.9973605   -4.3320684    5.5735547    2.7374901  -0.23073504 
   28100   0.99547276   -4.3312657    5.5746346    2.7365411  -0.22118231 
   28200   0.99719929   -4.3342401    5.5757789    2.7373007  -0.26562686 
   28300    1.0008051   -4.3302632    5.5726538    2.7435612  -0.24010775 
   28400   0.98945649   -4.3189789    5.5738842    2.7390533  -0.17354704 
   28500     1.000454   -4.3250211     5.573035    2.7486578  -0.20205307 
   28600   0.99695453   -4.3291784    5.5741373    2.7403537  -0.21883108 
   28700   0.99857287   -4.3278698    5.5752644    2.7452169  -0.27503343 
   28800    1.0023547   -4.3288949    5.5751798    2.7497797  -0.20589019 
   28900    0.9999145   -4.3288531    5.5720518    2.7430334   -0.2075571 
   29000    1.0022296   -4.3330362    5.5792781    2.7495492  -0.19733037 
   29100     1.004623   -4.3360014    5.5756616    2.7465576  -0.25828073 
   29200    1.0036905   -4.3333961    5.5718816    2.7439841  -0.24998631 
   29300    1.0011672   -4.3280548    5.5722695    2.7459284  -0.24409737 
   29400    1.0015932   -4.3289307    5.5733263    2.7467484  -0.26784111 
   29500   0.99770098   -4.3287859    5.5774493    2.7451778  -0.25568491 
   29600    1.0000626   -4.3257797    5.5722176    2.7464947  -0.24457085 
   29700   0.99902278   -4.3277545    5.5758706    2.7466133  -0.27520264 
   29800    0.9999309   -4.3276619    5.5749484    2.7471458  -0.26914134 
   29900   0.99824547   -4.3264673    5.5767796    2.7476435  -0.26528116 
   30000    1.0015669   -4.3283486    5.5751399    2.7491045  -0.26935465 
   30100     1.000352   -4.3265991      5.57626    2.7501518  -0.26004078 
   30200   0.99976576   -4.3289238    5.5777188    2.7484067  -0.27316647 
   30300    1.0000593     -4.32769    5.5750544    2.7474163  -0.25971633 
   30400   0.99781121   -4.3221358    5.5766328    2.7511769  -0.26958526 
   30500   0.99599904   -4.3230325    5.5800981    2.7510272  -0.23978629 
   30600    1.0013112   -4.3276409    5.5750421    2.7493309  -0.26754233 
   30700    1.0034757   -4.3245112    5.5721077    2.7527728  -0.23753091 
   30800   0.99727321   -4.3245443    5.5752591    2.7465877  -0.24160427 
   30900    1.0003104   -4.3224427    5.5726054    2.7505912    -0.235235 
   31000   0.99754698   -4.3214322    5.5754405    2.7502918  -0.26128152 
   31100    1.0002041   -4.3266968    5.5737285    2.7473007  -0.27749732 
   31200   0.99765366   -4.3204314    5.5730686    2.7490806  -0.27534574 
   31300   0.99702535   -4.3277726    5.5753431    2.7430715  -0.26220904 
   31400   0.99646781   -4.3200593     5.572605    2.7472105  -0.25015981 
   31500   0.99386287   -4.3251227    5.5772687    2.7429035  -0.26058392 
   31600   0.99978457   -4.3267103    5.5742555     2.747185  -0.27955601 
   31700   0.99781103   -4.3263366    5.5763145    2.7466574  -0.25003027 
   31800   0.99835103   -4.3277041    5.5768957    2.7466812  -0.25300784 
   31900    1.0005717   -4.3276875    5.5724603    2.7455933  -0.26984431 
   32000   0.99656979   -4.3261055    5.5758459    2.7445581  -0.27914835 
   32100   0.99270047   -4.3191389     5.573086     2.742961    -0.252922 
   32200   0.99580504   -4.3220636    5.5698688    2.7414759  -0.27217189 
   32300   0.99674838   -4.3243315    5.5729619     2.743716  -0.24479201 
   32400   0.99816418   -4.3267706    5.5734795    2.7439182  -0.22887592 
   32500    1.0005331   -4.3284245    5.5733607    2.7456987  -0.23614436 
   32600   0.99997944   -4.3303055     5.574544    2.7441706  -0.24184833 
   32700    1.0021444   -4.3313903    5.5723698    2.7441589  -0.26489829 
   32800    1.0000049   -4.3281917    5.5746674     2.746446  -0.25832299 
   32900   0.99687632   -4.3284274     5.576954    2.7438042  -0.24471105 
   33000   0.99720884   -4.3289398     5.581772    2.7486084  -0.26896902 
   33100     1.003669   -4.3276758    5.5741084    2.7518989  -0.26465127 
   33200   0.99803558   -4.3253128    5.5786395     2.750343  -0.22642905 
   33300    1.0001034   -4.3266939     5.579369    2.7527932  -0.26196006 
   33400    1.0011061   -4.3241183    5.5751201    2.7526238  -0.27373973 
   33500   0.99572634   -4.3226038    5.5784214    2.7493701  -0.26409105 
   33600   0.99626649   -4.3200108    5.5798123    2.7541643  -0.26181583 
   33700    0.9995528   -4.3214766    5.5752923    2.7531078  -0.28762918 
   33800   0.99784982   -4.3191004     5.576415    2.7540523  -0.29254161 
   33900    1.0001771   -4.3182687    5.5733286    2.7552884  -0.28833974 
   34000   0.99642459   -4.3178615    5.5761814    2.7529198   -0.2666684 
   34100   0.99807344   -4.3162663     5.576536    2.7573428  -0.24436356 
   34200   0.99673463   -4.3166966    5.5755953    2.7539637  -0.29592395 
   34300    1.0020231   -4.3189824    5.5757451    2.7597603  -0.30478305 
   34400   0.99788679    -4.314257     5.574417    2.7569532  -0.24439593 
   34500    1.0028241   -4.3135863    5.5702974    2.7609101  -0.25093816 
   34600   0.99846149   -4.3207243    5.5774446    2.7543755  -0.28309684 
   34700    1.0032204   -4.3191637    5.5747999    2.7604295  -0.25912157 
   34800     1.001518   -4.3224008    5.5766681    2.7565071  -0.26608208 
   34900    1.0020184   -4.3268337    5.5755856    2.7517423  -0.25873831 
   35000    1.0059158   -4.3293313    5.5807123    2.7602175  -0.24319114 
   35100    1.0014941   -4.3274391    5.5777739    2.7525388  -0.25621869 
   35200    1.0028772   -4.3283354    5.5806207    2.7565639  -0.28267724 
   35300    1.0024975    -4.329992    5.5832272    2.7569443  -0.26466842 
   35400    1.0020828   -4.3276773    5.5777095    2.7531192  -0.25319809 
   35500    1.0069621   -4.3289942    5.5767146    2.7581262  -0.25669199 
   35600    1.0002332   -4.3289038    5.5788221    2.7502311   -0.2398498 
   35700    1.0021366   -4.3281774    5.5786475    2.7536378  -0.20916389 
   35800    1.0030414   -4.3305136      5.57433    2.7483414  -0.21337126 
   35900    1.0007239   -4.3270887    5.5760595    2.7500195  -0.21301483 
   36000    1.0024514   -4.3307435    5.5757751    2.7486716  -0.23305131 
   36100    1.0005171   -4.3321964    5.5762034    2.7447456  -0.28215106 
   36200    1.0020717   -4.3318235    5.5777742     2.749021  -0.26512595 
   36300   0.99301218   -4.3294235    5.5790786    2.7391366  -0.27583561 
   36400    1.0042017   -4.3337708    5.5772709    2.7497655  -0.26718411 
   36500    1.0014165   -4.3351125    5.5748221    2.7417971   -0.2607244 
   36600    1.0001605   -4.3314882    5.5763044    2.7450199  -0.27179219 
   36700    1.0056845   -4.3333632    5.5726546    2.7477808  -0.29492833 
   36800    1.0012498   -4.3377528    5.5765901    2.7406748  -0.30379523 
   36900   0.99834727   -4.3295594    5.5754977    2.7434221  -0.25864697 
   37000   0.99910765   -4.3315606    5.5721547    2.7392185  -0.24797098 
   37100   0.99762487   -4.3326758     5.579053    2.7427776  -0.31373663 
   37200   0.99469473   -4.3306326    5.5777935    2.7391661  -0.27641231 
   37300    1.0045633   -4.3342523    5.5723177    2.7448731  -0.27298174 
   37400    1.0034276   -4.3358521    5.5742107    2.7434628  -0.30939824 
   37500    0.9981545   -4.3307554    5.5745028    2.7409422  -0.26520264 
   37600   0.99513749   -4.3274211     5.578728    2.7439763  -0.26240421 
   37700    1.0002225   -4.3294432    5.5714667    2.7423202  -0.23502801 
   37800    0.9983071   -4.3292796    5.5769832    2.7451272  -0.23624038 
   37900    1.0001043   -4.3312713    5.5726846    2.7415327  -0.26049915 
   38000   0.99771778   -4.3349299    5.5779692     2.739579  -0.26177411 
   38100   0.99970375   -4.3280157    5.5710476    2.7425505  -0.24257778 
   38200   0.99706331   -4.3304852    5.5766573    2.7417302  -0.22406581 
   38300    1.0024715   -4.3338133    5.5748106    2.7446674  -0.25641873 
   38400    1.0032402   -4.3368176    5.5749736     2.742979  -0.27165167 
   38500    1.0067966    -4.342071    5.5750947    2.7431813  -0.29494133 
   38600    1.0005393   -4.3331488    5.5743325    2.7419556  -0.26712605 
   38700    1.0015354   -4.3329888     5.575113    2.7443901   -0.2372844 
   38800   0.99931224   -4.3339608    5.5774569    2.7424274  -0.24101825 
   38900   0.99732555   -4.3363616    5.5814165    2.7410063  -0.26399369 
   39000    1.0046528   -4.3406561     5.577339    2.7436249  -0.28204334 
   39100    1.0069537   -4.3457534    5.5744252    2.7390649   -0.2891279 
   39200    1.0014371   -4.3387323     5.579977    2.7433632  -0.27320234 
   39300    1.0008681   -4.3402196    5.5758521    2.7368975  -0.24092507 
   39400    1.0055025   -4.3418202    5.5750767    2.7414729  -0.24837779 
   39500    1.0039392   -4.3364142    5.5724355    2.7418928  -0.25183307 
   39600   0.99803429   -4.3385186    5.5781961     2.736692  -0.24631417 
   39700    1.0016583   -4.3396756    5.5796103    2.7423851  -0.26289779 
   39800   0.99977841   -4.3361521    5.5732583    2.7367368  -0.25978891 
   39900     1.000383   -4.3349264    5.5739416    2.7395527   -0.2586748 
   40000     1.001609   -4.3394862    5.5729648     2.735855  -0.25068086 
   40100   0.99940084   -4.3388383    5.5779395    2.7381654  -0.23948041 
   40200    1.0013005   -4.3434649    5.5776698    2.7361184  -0.29071647 
   40300   0.99906858   -4.3417468    5.5800886    2.7369076  -0.27851394 
   40400   0.99899852   -4.3388777    5.5770972    2.7366802   -0.2396391 
   40500    1.0024327   -4.3424292    5.5760059    2.7371886  -0.24932887 
   40600    1.0025834   -4.3441183    5.5810281    2.7407477  -0.24697415 
   40700     1.004452   -4.3417898    5.5730675    2.7379185  -0.17406643 
   40800    1.0070967    -4.345859    5.5756999    2.7404486  -0.25029359 
   40900    1.0021202   -4.3474056    5.5819522    2.7376897  -0.27844576 
   41000    1.0079495   -4.3513757    5.5802671    2.7407783   -0.2386829 
   41100    1.0098589   -4.3520875    5.5754598    2.7381233  -0.24730244 
   41200    1.0014591    -4.343238    5.5752057    2.7341191  -0.22401783 
   41300    1.0041745   -4.3444991    5.5792811    2.7410065  -0.23143522 
   41400   0.99868981   -4.3483168    5.5818136    2.7314945  -0.25957677 
   41500    1.0075753   -4.3510554    5.5792253    2.7394955  -0.26068989 
   41600   0.99985739   -4.3451093    5.5771515    2.7317913  -0.25400676 
   41700    1.0064072   -4.3487604     5.576946    2.7377591  -0.25532078 
   41800    1.0026643    -4.345349    5.5747258    2.7333362  -0.22473966 
   41900    1.0025603   -4.3508782    5.5769996    2.7299247  -0.24455761 
   42000    1.0073989   -4.3509742    5.5752079    2.7352947  -0.22927483 
   42100    1.0056781    -4.350087    5.5727284    2.7311212  -0.23364877 
   42200    1.0066002   -4.3480049    5.5716993    2.7335575  -0.24514513 
   42300   0.99824327   -4.3458076    5.5768133    2.7283336  -0.23156573 
   42400   0.99775439   -4.3461984    5.5777939      2.72819  -0.23021006 
   42500    1.0006061   -4.3452367    5.5732646    2.7288999  -0.26813422 
   42600     1.003216   -4.3534517    5.5771561    2.7284912  -0.29312802 
   42700    1.0037454   -4.3515087    5.5750119     2.729084  -0.27146317 
   42800     1.000645   -4.3508692    5.5787093    2.7287704  -0.25732311 
   42900    1.0044175   -4.3494835    5.5732817    2.7303872  -0.26412396 
   43000    1.0012504   -4.3476928     5.575685    2.7298308  -0.25981052 
   43100   0.99830568   -4.3478698    5.5779199    2.7274717  -0.26160973 
   43200   0.99794191   -4.3455845    5.5749846    2.7262759   -0.2566866 
   43300   0.99365826    -4.344313    5.5770339    2.7231715   -0.2354119 
   43400   0.99526814   -4.3434169    5.5779805    2.7274289   -0.2141595 
   43500   0.99466062   -4.3493979    5.5816159    2.7241721  -0.23149791 
   43600    1.0004392   -4.3504846    5.5764101    2.7265472  -0.24362434 
   43700    1.0010662   -4.3518998    5.5786239    2.7282864  -0.29284836 
   43800   0.99933784   -4.3498747    5.5749332    2.7240282  -0.25975656 
   43900   0.99865272   -4.3492634    5.5767797    2.7254582    -0.267917 
   44000   0.99660534   -4.3458164    5.5740921    2.7231468   -0.2753394 
   44100   0.99893275   -4.3490184    5.5730042     2.722348  -0.28611157 
   44200   0.99948734   -4.3457859    5.5708785    2.7242865  -0.28479769 
   44300   0.99377139   -4.3429975    5.5742405    2.7218632   -0.2835148 
   44400   0.99910842   -4.3493896    5.5767938    2.7260298  -0.29325239 
   44500    1.0025828   -4.3510114    5.5707478    2.7235734  -0.28100951 
   44600   0.99974741   -4.3530298    5.5740899    2.7206441  -0.25017291 
   44700   0.99745388   -4.3465289    5.5755186    2.7251335    -0.217898 
   44800   0.99955769   -4.3500565    5.5715178    2.7207608  -0.26534737 
   44900     1.000947   -4.3551685    5.5780414    2.7242563  -0.29775763 
   45000    1.0031172   -4.3523942    5.5737524    2.7259968  -0.26860938 
   45100    1.0008949   -4.3574108    5.5754277    2.7193222  -0.27753413 
   45200    1.0016895   -4.3539393    5.5754668    2.7240247  -0.25931217 
   45300   0.99796837    -4.353736     5.575894    2.7190735  -0.24550186 
   45400   0.99946756   -4.3551917    5.5735499    2.7175225  -0.25762692 
   45500    1.0001218   -4.3547954    5.5750898    2.7204401  -0.25153895 
   45600   0.99762516   -4.3563078    5.5739632    2.7140562  -0.24626099 
   45700   0.99456139   -4.3551454    5.5798238    2.7164836  -0.24665211 
   45800   0.99552858    -4.348925    5.5757832    2.7201141  -0.25016533 
   45900   0.99344253   -4.3542859    5.5759339     2.711775  -0.27545115 
   46000   0.99652031   -4.3515344     5.569817    2.7130262  -0.28511486 
   46100   0.99484708   -4.3566044    5.5749597    2.7105891  -0.28312095 
   46200   0.99945474   -4.3596721    5.5730622    2.7125352  -0.26857046 
   46300    0.9988279   -4.3590818    5.5736718    2.7127948  -0.24985526 
   46400   0.99947641   -4.3567509    5.5731751    2.7156017  -0.26201878 
   46500   0.99768871   -4.3523941    5.5774823    2.7215842  -0.22811663 
   46600   0.99620396   -4.3502298    5.5721954    2.7162346  -0.24150967 
   46700   0.99984726   -4.3532354    5.5719816      2.71848   -0.2599109 
   46800   0.99805621   -4.3544678    5.5765609    2.7191404  -0.28382363 
   46900   0.99652803   -4.3544545    5.5777007    2.7180013  -0.29854007 
   47000   0.99894913   -4.3540097    5.5735588    2.7179358  -0.29107428 
   47100   0.99683447   -4.3534798    5.5760524    2.7177873  -0.29066093 
   47200   0.99767133   -4.3577757    5.5762403    2.7149346  -0.28118824 
   47300   0.99846066   -4.3582459    5.5764054    2.7158135  -0.28987198 
   47400   0.99399042   -4.3539723    5.5779609    2.7149374  -0.23784275 
   47500   0.99927891    -4.358052    5.5765065    2.7173358  -0.24898058 
   47600   0.99389033   -4.3534867    5.5746935    2.7120054  -0.23680082 
   47700    1.0044445    -4.362436    5.5716166    2.7158101  -0.26879817 
   47800   0.99626657   -4.3627694      5.57633    2.7079234   -0.2365248 
   47900    0.9958965    -4.362725    5.5765328    2.7076156  -0.24929268 
   48000    1.0011936   -4.3613952    5.5724592    2.7128173  -0.25028589 
   48100    0.9954067   -4.3622138    5.5733459    2.7042053  -0.25502699 
   48200   0.99566094   -4.3620536     5.580044    2.7114449  -0.25836298 
   48300   0.99710783   -4.3616329     5.571137    2.7051288  -0.28416321 
   48400   0.99581899   -4.3618709    5.5768404     2.708661  -0.29353315 
   48500   0.99883471    -4.363461    5.5735845    2.7083385  -0.27441707 
   48600   0.99679849    -4.361404    5.5719598    2.7057165  -0.26052956 
   48700   0.99772624   -4.3640004    5.5736699    2.7062219  -0.28721076 
   48800   0.99866072   -4.3616564    5.5731491    2.7094468  -0.25907463 
   48900   0.99133661   -4.3550818    5.5713498    2.7032362  -0.27344119 
   49000   0.99780167   -4.3631201    5.5729218    2.7064672  -0.27222413 
   49100   0.99866846    -4.360672    5.5736818    2.7109754  -0.20840341 
   49200   0.99337721   -4.3666154    5.5765435     2.699957  -0.25590549 
   49300   0.99485248   -4.3596427    5.5771936    2.7097928  -0.26313579 
   49400   0.99715322    -4.370597     5.575394    2.7004898  -0.27965939 
   49500   0.99502257   -4.3689252    5.5772861    2.7008579  -0.21976235 
   49600   0.99447309   -4.3656641    5.5764915    2.7025001   -0.2267743 
   49700   0.99455726   -4.3667049    5.5760278    2.7011219  -0.26722387 
   49800    0.9981821   -4.3655834     5.574851    2.7065037  -0.27573572 
   49900    0.9974253   -4.3652622    5.5704425    2.7012812  -0.26880728 
   50000    1.0032498   -4.3677577    5.5679326    2.7050124  -0.23714755 
   50100   0.99540619   -4.3635328    5.5728237    2.7023632  -0.21247692 
   50200   0.99810341     -4.36702    5.5730352    2.7031334  -0.23460598 
   50300   0.99764277   -4.3641682    5.5713841     2.703643  -0.21629159 
   50400   0.99735377   -4.3689976    5.5771774    2.7041735  -0.25761669 
   50500    0.9955305    -4.364535     5.573555    2.7022788  -0.23507395 
Loop time of 492.578 on 32 procs for 50000 steps with 40455 atoms

Performance: 17540.367 tau/day, 101.507 timesteps/s
92.2% CPU use with 4 MPI tasks x 8 OpenMP threads

MPI task timing breakdown:
Section |  min time  |  avg time  |  max time  |%varavg| %total
---------------------------------------------------------------
Pair    | 133.36     | 203.05     | 250.67     | 308.7 | 41.22
Bond    | 4.1985     | 5.8731     | 6.7902     |  41.6 |  1.19
Neigh   | 44.308     | 46.719     | 49.119     |  35.0 |  9.48
Comm    | 120.61     | 168.72     | 235.85     | 374.3 | 34.25
Output  | 10.898     | 10.908     | 10.916     |   0.2 |  2.21
Modify  | 32.438     | 54.211     | 75.823     | 209.0 | 11.01
Other   |            | 3.1        |            |       |  0.63

Nlocal:    10113.8 ave 12649 max 6244 min
Histogram: 1 0 0 0 0 1 0 0 1 1
Nghost:    5437.75 ave 6143 max 4541 min
Histogram: 1 0 0 1 0 0 0 0 1 1
Neighs:    336180 ave 444207 max 186031 min
Histogram: 1 0 0 0 1 0 0 0 1 1

Total # of neighbors = 1344718
Ave neighs/atom = 33.2398
Ave special neighs/atom = 1.28736
Neighbor list builds = 3076
Dangerous builds = 0

unfix 			1
unfix 			2
unfix 			30
unfix 			300
unfix 			40
unfix 			400
undump 			1
###########################################################
############### Post parameters############################
reset_timestep  	0
velocity 		all create $T 293849 mom yes rot yes dist gaussian
velocity 		all create 1 293849 mom yes rot yes dist gaussian
fix 			1 all nvt temp $T $T 0.3
fix 			1 all nvt temp 1 $T 0.3
fix 			1 all nvt temp 1 1 0.3
fix_modify 		1 temp myTemp
fix 			30 all wall/reflect zhi EDGE
fix 			300 all wall/reflect zlo EDGE
fix 			40 all wall/reflect xhi EDGE
fix 			400 all wall/reflect xlo EDGE

#compute 		bins ham chunk/atom bin/3d x 60.0 1.149 y 0.0 1.143 z 2.8 1.1391 bound #			x 60.0 160.0 bound y 0.0 34.4 bound z 2.8 29.0
#fix  			d ham ave/chunk 2 5 10 bins density/number norm sample #			file small_bond_bins_dens.dat

#compute 		bins1 ham chunk/atom bin/3d x 60.0 1 y 0.0 1.1467 z 2.8 1.1392 bound #			x 60.0 90.0 bound y 0.0 34.4 bound z 2.8 29.0
#fix  			d1 ham ave/chunk 2 5 40 bins1 density/number norm sample #			file left_small_bond_bins_dens.dat

#compute 		bins2 ham chunk/atom bin/3d x 120.0 1 y 0.0 1.1467 z 2.8 1.1392 bound #			x 120.0 150.0 bound y 0.0 34.4 bound z 2.8 29.0
#fix  			d2 ham ave/chunk 2 5 40 bins2 density/number norm sample #			file right_small_bond_bins_dens.dat

thermo_style    	custom step temp pe etotal
thermo_modify	        temp myTemp
thermo			100
#fix            		extra ham print 1000 "$(step) $(temp) $(pe)" append iteration_info.dat #			screen no

#restart     		100000 water.restart.mpiio
dump			1 all custom 200 tank.dat id type x y z
run			100000
Per MPI rank memory allocation (min/avg/max) = 14 | 20.25 | 22.59 Mbytes
Step Temp PotEng TotEng 
       0            1      1.20902    2.7089829 
     100    1.0021558     1.206745    2.7099416 
     200   0.99527015    1.2145018    2.7073701 
     300    1.0009266    1.2057913     2.707144 
     400     1.004042    1.2001568    2.7061826 
     500   0.99402934    1.2057596    2.6967667 
     600   0.99418614    1.2072365    2.6984788 
     700    0.9964937    1.2102783    2.7049819 
     800    1.0008956     1.210428    2.7117342 
     900    1.0023608    1.2161487    2.7196527 
    1000   0.99370037    1.2224904    2.7130041 
    1100    1.0029509    1.2147664    2.7191556 
    1200   0.99983651    1.2141505    2.7138681 
    1300   0.99875539    1.2136835    2.7117796 
    1400    1.0006414     1.211301    2.7122259 
    1500   0.99572088    1.2135572    2.7071016 
    1600    1.0009409    1.2130273    2.7144015 
    1700    1.0032755    1.2158222    2.7206983 
    1800    1.0054795    1.2138155    2.7219975 
    1900    1.0030624    1.2191482    2.7237047 
    2000    1.0006357    1.2180974    2.7190139 
    2100    0.9933028    1.2151466    2.7050639 
    2200   0.99685867     1.212092    2.7073431 
    2300   0.99612898    1.2154761    2.7096327 
    2400   0.99603436    1.2201901    2.7142047 
    2500     1.002447    1.2185213    2.7221546 
    2600    1.0011479    1.2171774    2.7188621 
    2700    1.0073853     1.214071    2.7251116 
    2800    1.0014563     1.215997    2.7181442 
    2900     0.995369    1.2239524     2.716969 
    3000    0.9954741    1.2146067     2.707781 
    3100   0.99385088    1.2135317    2.7042712 
    3200   0.99587453    1.2155307    2.7093056 
    3300   0.99639011    1.2247969    2.7193451 
    3400   0.99805869    1.2291611    2.7262121 
    3500   0.99836844    1.2264857    2.7240013 
    3600   0.99970548    1.2267236    2.7262448 
    3700   0.99655418     1.223131    2.7179253 
    3800    1.0010434     1.218602    2.7201299 
    3900   0.99627867    1.2156906    2.7100716 
    4000   0.99339369     1.214719    2.7047727 
    4100    1.0022626    1.2071822    2.7105389 
    4200    0.9977668    1.2161095    2.7127227 
    4300    1.0045131    1.2210275      2.72776 
    4400    1.0063025    1.2160871    2.7255036 
    4500   0.99935116    1.2208149    2.7198046 
    4600    1.0021578    1.2163041    2.7195037 
    4700   0.99659403    1.2145572    2.7094112 
    4800   0.99673685    1.2164781    2.7115465 
    4900   0.99780466    1.2131299    2.7097999 
    5000   0.99372957    1.2174603    2.7080178 
    5100    1.0042075    1.2131708    2.7194449 
    5200    1.0095087    1.2060951    2.7203207 
    5300    1.0069076    1.2098087    2.7201328 
    5400    1.0012968    1.2082497    2.7101577 
    5500   0.99673459    1.2060421     2.701107 
    5600   0.99978401    1.2031521     2.702791 
    5700   0.99453838      1.20328    2.6950507 
    5800    1.0021655    1.1947552    2.6979662 
    5900   0.99879298    1.2006383    2.6987907 
    6000     1.000744    1.1996362    2.7007152 
    6100    1.0096272    1.1947924    2.7091958 
    6200    1.0060352    1.1973286    2.7063442 
    6300    0.9968916    1.1974227    2.6927232 
    6400    1.0020617    1.1899573    2.6930126 
    6500   0.99833883    1.1889061    2.6863774 
    6600   0.99433384    1.1939731     2.685437 
    6700    1.0015125    1.1935223    2.6957539 
    6800   0.99531608    1.1996152    2.6925524 
    6900    1.0073073    1.1961727    2.7070963 
    7000    1.0071855    1.1945605    2.7053013 
    7100    1.0034407    1.1930421    2.6981659 
    7200   0.99977087    1.1895979    2.6892172 
    7300   0.99827922     1.185213    2.6825948 
    7400    1.0029303    1.1797764    2.6841347 
    7500    1.0021742    1.1782748     2.681499 
    7600    1.0012458    1.1811524     2.682984 
    7700   0.99913033    1.1820457    2.6807041 
    7800      1.00358    1.1774996    2.6828324 
    7900   0.99934752    1.1846615    2.6836457 
    8000     1.002649    1.1878263    2.6917627 
    8100    1.0061164    1.1758055    2.6849428 
    8200    1.0058054    1.1765967    2.6852675 
    8300   0.99645175    1.1787288    2.6733695 
    8400   0.99379199    1.1782213    2.6688725 
    8500   0.99556163    1.1822434    2.6755489 
    8600   0.99362108    1.1817526    2.6721474 
    8700    1.0066611    1.1775018    2.6874561 
    8800   0.99734563    1.1816717    2.6776532 
    8900     1.000853    1.1822145    2.6834569 
    9000    1.0028441    1.1736282    2.6778572 
    9100    0.9990393    1.1762885    2.6748104 
    9200   0.99621298    1.1814066    2.6756891 
    9300    0.9955124    1.1772228    2.6704545 
    9400    1.0003052     1.180143    2.6805638 
    9500   0.99821026    1.1849021    2.6821805 
    9600    1.0048862    1.1851435    2.6924355 
    9700    1.0078173    1.1751935    2.6868821 
    9800    1.0042495    1.1738241    2.6801612 
    9900   0.99586234    1.1807564    2.6745129 
   10000   0.99871122    1.1772223    2.6752521 
   10100   0.99855373    1.1822443    2.6800379 
   10200   0.99984876    1.1804019     2.680138 
   10300    1.0045127    1.1829831    2.6897148 
   10400    1.0023266    1.1819215    2.6853743 
   10500    1.0051031    1.1819696    2.6895871 
   10600    1.0013549    1.1802144    2.6822095 
   10700   0.99550418    1.1809835    2.6742029 
   10800   0.99743579    1.1775843     2.673701 
   10900    1.0013344     1.177388    2.6793525 
   11000    1.0014899    1.1813992    2.6835969 
   11100    1.0013857    1.1876423    2.6896837 
   11200    1.0062785    1.1850019    2.6943824 
   11300   0.99788218    1.1900236    2.6868099 
   11400    1.0004132    1.1911589    2.6917416 
   11500   0.99186788    1.1860609    2.6738259 
   11600   0.98816493    1.1873527    2.6695635 
   11700    0.9943796    1.1844543    2.6759868 
   11800   0.99399643    1.1870023    2.6779601 
   11900    1.0044458    1.1814857    2.6881172 
   12000   0.99549908    1.1959914    2.6892032 
   12100    1.0031991     1.188847    2.6936084 
   12200    1.0008044    1.1940388    2.6952082 
   12300    1.0060385    1.1888757    2.6978962 
   12400     0.996696    1.1955662    2.6905732 
   12500   0.99912945    1.1862957    2.6849528 
   12600   0.99354297    1.1897901    2.6800677 
   12700   0.99284071    1.1933815    2.6826058 
   12800   0.99647182    1.1991768    2.6938476 
   12900   0.99940869    1.1999195    2.6989955 
   13000    1.0017134     1.199656     2.702189 
   13100   0.99906008    1.2001611    2.6987142 
   13200    1.0030893    1.2005052    2.7051019 
   13300   0.99746095    1.2005907    2.6967451 
   13400   0.99753362    1.2004239    2.6966873 
   13500   0.99563609    1.1997414    2.6931586 
   13600   0.99245331    1.1981915    2.6868347 
   13700    1.0005245    1.2008006    2.7015502 
   13800    1.0013682    1.2018074    2.7038225 
   13900    1.0057735    1.2034392    2.7120622 
   14000    1.0037278     1.203765    2.7093194 
   14100    1.0004957    1.2081109    2.7088173 
   14200   0.99887694    1.2038273    2.7021057 
   14300   0.99215213      1.20717    2.6953614 
   14400    0.9938838    1.2049497    2.6957385 
   14500   0.98425629    1.2051919    2.6815398 
   14600     0.999374    1.1986143    2.6976382 
   14700   0.99786011    1.2049731    2.7017263 
   14800     1.002051    1.2048945    2.7079339 
   14900    1.0052014     1.203322    2.7110867 
   15000    1.0021198    1.2037737    2.7069163 
   15100    1.0031568     1.204205    2.7089031 
   15200    1.0001566    1.2014539    2.7016517 
   15300   0.99761313    1.2010571    2.6974398 
   15400   0.99537366    1.1978504     2.690874 
   15500   0.99699081    1.1976373    2.6930866 
   15600   0.99455943    1.2019478    2.6937501 
   15700    1.0035085    1.2039981    2.7092236 
   15800    1.0068769    1.1983469    2.7086249 
   15900    1.0003077    1.2068466     2.707271 
   16000    1.0025294    1.2053776    2.7091346 
   16100   0.98975323    1.2084876    2.6930807 
   16200    1.0020115    1.1971075    2.7000876 
   16300   0.99457168    1.1949377    2.6867583 
   16400   0.99925124    1.1938704    2.6927102 
   16500    1.0081436    1.1960458    2.7082239 
   16600   0.99823607    1.2028357    2.7001528 
   16700    1.0095616    1.1975657    2.7118707 
   16800     1.001366    1.1939304    2.6959423 
   16900    0.9971617    1.1968612    2.6925668 
   17000   0.99900939    1.1945716    2.6930487 
   17100   0.99619278    1.1933047    2.6875569 
   17200   0.99782151    1.1992343    2.6959295 
   17300     1.000399    1.1937513    2.6943126 
   17400    1.0025234    1.1961698    2.6999177 
   17500    1.0075729    1.1987577    2.7100797 
   17600    1.0067585    1.2057532    2.7158537 
   17700    1.0069684    1.2024272    2.7128425 
   17800   0.99875752    1.2044277    2.7025269 
   17900   0.99774811    1.2037599    2.7003451 
   18000    0.9963709    1.2026391    2.6971585 
   18100    1.0037674    1.1945346    2.7001484 
   18200   0.99898596    1.2026216    2.7010636 
   18300    1.0032504    1.2048853    2.7097237 
   18400    1.0113802     1.199072    2.7161047 
   18500     1.008532    1.2017109    2.7144715 
   18600    1.0053368    1.1965631     2.704531 
   18700    0.9995639     1.204147    2.7034558 
   18800    1.0034638     1.195174    2.7003325 
   18900   0.99483985    1.2074908    2.6997137 
   19000    1.0013198    1.2091936    2.7111362 
   19100    1.0004366     1.206722    2.7073397 
   19200    1.0072825    1.2115172    2.7224036 
   19300    1.0028322    1.2081949     2.712406 
   19400   0.99853214    1.2048769     2.702638 
   19500   0.99827581    1.1997783     2.697155 
   19600   0.99425613    1.1995653    2.6909127 
   19700     1.001975    1.2001454    2.7030708 
   19800   0.99767358    1.2010021    2.6974755 
   19900    1.0062721    1.2020749    2.7114458 
   20000    1.0020071    1.2046779    2.7076514 
   20100   0.99839757    1.2044274    2.7019867 
   20200    0.9941027    1.2033525    2.6944697 
   20300   0.99565832    1.1967082    2.6901587 
   20400   0.99418833    1.2032547    2.6945003 
   20500   0.99774679    1.2019818     2.698565 
   20600   0.99979736    1.2059987    2.7056577 
   20700   0.99421702    1.2123092    2.7035979 
   20800    1.0026007    1.2059524    2.7098163 
   20900    1.0046261    1.1999979    2.7068998 
   21000   0.99865137    1.2036358    2.7015758 
   21100   0.99907478    1.1970757    2.6956509 
   21200   0.99402971    1.1966132    2.6876209 
   21300   0.99152332    1.2070831    2.6943313 
   21400   0.99884288    1.2009073    2.6991346 
   21500    1.0038146    1.2005858    2.7062704 
   21600   0.99909512    1.2045996    2.7032053 
   21700   0.99783083    1.2058085    2.7025177 
   21800    1.0031755    1.1983095    2.7030355 
   21900   0.99648335    1.1971848    2.6918729 
   22000   0.99716193    1.2010652    2.6967711 
   22100   0.99724899    1.1948561    2.6906926 
   22200    1.0058541    1.1917859    2.7005298 
   22300    1.0097152    1.1953919    2.7099273 
   22400    1.0026468     1.201866     2.705799 
   22500    1.0055939    1.1994863    2.7078399 
   22600   0.99465961    1.1999619    2.6919144 
   22700    1.0007717    1.1944037    2.6955241 
   22800    0.9948775    1.1999165    2.6921959 
   22900    1.0002166    1.1960661    2.6963539 
   23000    1.0022328    1.2020838    2.7053958 
   23100    1.0029053    1.2057834    2.7101041 
   23200    1.0116516    1.1968857    2.7143256 
   23300    1.0004995    1.2001162    2.7008283 
   23400    1.0045079    1.1950391    2.7017637 
   23500   0.99842345    1.1962571    2.6938553 
   23600   0.99516236    1.1955405    2.6882471 
   23700    1.0025581    1.1863624    2.6901624 
   23800   0.99317395    1.1913564    2.6810805 
   23900   0.99746465    1.1899775    2.6861375 
   24000   0.99893468    1.1928023    2.6911672 
   24100     1.007636    1.1877309    2.6991475 
   24200    1.0078392    1.1894886      2.70121 
   24300    1.0038533    1.1917433    2.6974861 
   24400   0.99999786    1.1962236    2.6961833 
   24500    1.0022827    1.1871836    2.6905705 
   24600   0.99795142    1.1952485    2.6921387 
   24700    1.0004283    1.1914448    2.6920502 
   24800   0.99928467    1.1921206    2.6910105 
   24900    1.0054684    1.1905589    2.6987242 
   25000   0.99778405    1.1941225    2.6907616 
   25100   0.99981487    1.1965238    2.6962091 
   25200    0.9954741    1.2005081    2.6936823 
   25300   0.99859989    1.2004093    2.6982722 
   25400   0.99946425    1.2095603    2.7087197 
   25500    1.0069403     1.200567    2.7109401 
   25600    1.0008379    1.2113268    2.7125465 
   25700   0.99946721    1.2054067    2.7045705 
   25800    1.0000028    1.2024035    2.7023707 
   25900    0.9963572    1.2009804    2.6954793 
   26000    1.0010996    1.1993789    2.7009912 
   26100    1.0002394    1.2086053    2.7089274 
   26200     1.002966    1.2141798    2.7185916 
   26300    1.0100876     1.205259    2.7203529 
   26400    1.0014758    1.2068227    2.7089993 
   26500    1.0003524    1.2083562    2.7088477 
   26600    0.9987462    1.1991632    2.6972455 
   26700    1.0016614     1.200333     2.702788 
   26800    1.0011754    1.2005132    2.7022392 
   26900   0.99979362    1.2037587    2.7034121 
   27000    1.0088659    1.2023616     2.715623 
   27100    1.0060651    1.2046897    2.7137501 
   27200    1.0081517    1.2021248     2.714315 
   27300   0.99983023    1.2020173    2.7017255 
   27400   0.99636274    1.2036781    2.6981853 
   27500   0.99822462      1.20492      2.70222 
   27600    0.9979736    1.2052936     2.702217 
   27700     1.000375    1.2109651    2.7114905 
   27800    1.0026552    1.2110643      2.71501 
   27900     1.004866    1.2070466    2.7143084 
   28000   0.99958946    1.2104654    2.7098125 
   28100   0.99275393    1.2043231    2.6934172 
   28200   0.99809919    1.2011852    2.6982969 
   28300    1.0001172    1.1998476    2.6999863 
   28400    1.0018744    1.2008413    2.7036157 
   28500    1.0036262    1.2029095    2.7083116 
   28600    0.9989063    1.2059039    2.7042263 
   28700    1.0025532    1.2018235    2.7056162 
   28800    1.0003307    1.1956607    2.6961197 
   28900    0.9994413    1.1938398    2.6929647 
   29000   0.99628246    1.1955485    2.6899353 
   29100   0.99681143    1.1940246    2.6892047 
   29200    1.0005906    1.1986281    2.6994769 
   29300    1.0038925    1.1988447    2.7046462 
   29400     1.005819    1.2028453    2.7115365 
   29500    1.0032579     1.201272    2.7061216 
   29600   0.99816917    1.2043051    2.7015218 
   29700    1.0018689    1.1947205    2.6974867 
   29800   0.99728724    1.1965596    2.6924535 
   29900    1.0031824    1.1918039    2.6965402 
   30000   0.99690609    1.1974591    2.6927812 
   30100    1.0027898    1.1923544    2.6965018 
   30200    1.0034788    1.1893922    2.6945732 
   30300    1.0028442    1.1897396    2.6939687 
   30400   0.99940082    1.2001592    2.6992234 
   30500   0.99885902    1.2022846    2.7005361 
   30600     1.005245    1.2022473    2.7100775 
   30700    1.0071212    1.1949566    2.7056011 
   30800    1.0032299    1.1970894     2.701897 
   30900    1.0007298     1.193182    2.6942396 
   31000   0.99858174      1.19216    2.6899956 
   31100    1.0018426    1.1856444    2.6883712 
   31200   0.99628405    1.1929774    2.6873666 
   31300   0.99616847    1.1970431    2.6912589 
   31400    1.0028166    1.1978328    2.7020205 
   31500    1.0059532    1.2015436    2.7104361 
   31600    0.9973297    1.2090568    2.7050144 
   31700    1.0015068    1.2047333    2.7069563 
   31800   0.99952237    1.1993406     2.698587 
   31900   0.99997968     1.195066    2.6949984 
   32000   0.99825429     1.193182    2.6905264 
   32100   0.99604219    1.1911493    2.6851757 
   32200    1.0007169    1.1954622    2.6965005 
   32300   0.99965317    1.1992328    2.6986755 
   32400    1.0043196    1.1960265    2.7024687 
   32500    1.0009673    1.1994486    2.7008625 
   32600   0.99469389     1.206552    2.6985559 
   32700    1.0009066    1.1987847    2.7001074 
   32800   0.99613534    1.2068338    2.7009999 
   32900    1.0023878     1.198136    2.7016806 
   33000    1.0005944    1.1992161    2.7000706 
   33100   0.99937164    1.2028292    2.7018496 
   33200   0.99684713    1.1970229    2.6922566 
   33300    1.0017963    1.1941705    2.6968277 
   33400   0.99526983    1.1977263    2.6905942 
   33500   0.99506931    1.2002318    2.6927989 
   33600    1.0038106    1.2010022    2.7066809 
   33700    1.0021292     1.201118    2.7042746 
   33800    1.0058149    1.2041818    2.7128669 
   33900    1.0066839    1.1956158    2.7056044 
   34000   0.99844828    1.2014057    2.6990411 
   34100    1.0015413     1.197153    2.6994278 
   34200   0.99835692    1.1977283    2.6952267 
   34300    1.0006934    1.1959385    2.6969414 
   34400    1.0020856    1.1922295    2.6953207 
   34500    0.9950088    1.1989273    2.6914036 
   34600    1.0003448    1.1954475    2.6959276 
   34700    1.0084834    1.1889473     2.701635 
   34800    1.0048547    1.1965201    2.7037649 
   34900    1.0025002    1.2013749     2.705088 
   35000   0.99638086    1.1972976     2.691832 
   35100   0.99495571    1.1959986    2.6883953 
   35200    1.0018554    1.1885299    2.6912758 
   35300    0.9973114    1.1930602    2.6889904 
   35400    1.0009318    1.1941922    2.6955528 
   35500    1.0048055    1.1893293    2.6965003 
   35600    1.0001447    1.1942112    2.6943911 
   35700   0.99991709    1.1938342    2.6936728 
   35800    1.0010039    1.1861469    2.6876156 
   35900   0.99918686    1.1848705    2.6836138 
   36000   0.99710379    1.1936957    2.6893144 
   36100   0.99642449    1.1933338    2.6879336 
   36200    1.0060131    1.1910209    2.7000032 
   36300    1.0044237    1.1957307     2.702329 
   36400   0.99923717    1.1964636    2.6952823 
   36500    1.0035303    1.1944951    2.6997533 
   36600   0.99259986    1.1938843    2.6827472 
   36700   0.99511398    1.1903362    2.6829703 
   36800   0.99724991    1.1953375    2.6911754 
   36900    1.0032243    1.1881181    2.6929174 
   37000    1.0014352    1.1980786    2.7001944 
   37100    0.9972413    1.2019489    2.6977739 
   37200    0.9992937    1.2008299    2.6997334 
   37300    1.0064709    1.1924291    2.7020982 
   37400   0.99848176     1.201931    2.6996166 
   37500     1.000682    1.1980264    2.6990124 
   37600   0.99816789    1.1975343    2.6947491 
   37700   0.99526724    1.1960641     2.688928 
   37800   0.99753435    1.1977318    2.6939963 
   37900    1.0000485    1.2025063    2.7025419 
   38000   0.99654833    1.2095005     2.704286 
   38100    1.0056559    1.2070537    2.7155003 
   38200   0.99981368    1.2070762    2.7067596 
   38300    1.0012255    1.2078716    2.7096728 
   38400    1.0031264    1.2069847    2.7116371 
   38500   0.99895141    1.2003985    2.6987886 
   38600   0.99712467    1.2045526    2.7002027 
   38700   0.99070387    1.2039722    2.6899912 
   38800   0.99562313    1.2026748    2.6960726 
   38900    1.0000615    1.2068266    2.7068817 
   39000   0.99975107    1.2067686    2.7063581 
   39100    1.0025025    1.2054997    2.7092163 
   39200   0.99672746    1.2123825    2.7074367 
   39300   0.99869783    1.2065674    2.7045771 
   39400    1.0038915    1.2011135    2.7069135 
   39500    1.0004026    1.2066114    2.7071782 
   39600    1.0001151    1.2064652    2.7066008 
   39700    1.0030177    1.2052007      2.70969 
   39800    1.0019471    1.1992841    2.7021676 
   39900    1.0017853    1.1993828    2.7020236 
   40000   0.99964154    1.1949869    2.6944122 
   40100   0.99501982    1.1976142     2.690107 
   40200    1.0011488    1.2001151    2.7018011 
   40300    1.0000954    1.2035486    2.7036546 
   40400    1.0041911    1.2036789    2.7099283 
   40500    1.0048769    1.2023611    2.7096392 
   40600   0.99889004    1.2000159     2.698314 
   40700    1.0025602    1.1987453    2.7025483 
   40800   0.99855758    1.1964122    2.6942116 
   40900   0.99586732     1.200959     2.694723 
   41000    1.0030883    1.1932007    2.6977959 
   41100   0.99433576    1.1988875    2.6903543 
   41200    1.0027027    1.1958199    2.6998368 
   41300    1.0014352    1.1987747    2.7008903 
   41400    1.0095982    1.1910463    2.7054062 
   41500    1.0018467    1.2017065    2.7044394 
   41600   0.99977125    1.1975367    2.6971565 
   41700   0.99741557    1.1973758    2.6934622 
   41800   0.99488625    1.1986293    2.6909218 
   41900   0.99413607    1.2028918    2.6940591 
   42000    1.0051511     1.201494    2.7091834 
   42100    1.0038731    1.2019174    2.7076899 
   42200    1.0053967    1.1964917    2.7045495 
   42300    1.0009628    1.2020048    2.7034119 
   42400   0.99660663    1.1960914    2.6909644 
   42500    1.0017711    1.1966394    2.6992589 
   42600    0.9917681     1.202312    2.6899274 
   42700   0.99762976    1.1992593    2.6956669 
   42800    1.0055378    1.2028903    2.7111597 
   42900    1.0023594    1.2021933    2.7056953 
   43000    1.0112856    1.1963658    2.7132568 
   43100    1.0062633    1.1870764     2.696434 
   43200   0.99834231    1.1966162    2.6940926 
   43300    1.0023681    1.1922744    2.6957894 
   43400   0.99794167    1.1928295    2.6897051 
   43500   0.99870655    1.1965789    2.6946017 
   43600   0.99234135    1.1999849    2.6884601 
   43700    1.0009709    1.1914361    2.6928554 
   43800    1.0005849    1.1934528     2.694293 
   43900    1.0022808    1.1931765    2.6965606 
   44000   0.99767661    1.2048274    2.7013053 
   44100    1.0026209    1.2009032    2.7047974 
   44200    1.0060359    1.1967808    2.7057974 
   44300    1.0010639    1.1983145    2.6998732 
   44400   0.99937353    1.1910569    2.6900802 
   44500   0.99967985     1.188092    2.6875747 
   44600    1.0006038    1.1931384    2.6940069 
   44700   0.99577534    1.1971855    2.6908116 
   44800     1.007267    1.1913071    2.7021703 
   44900   0.99795361    1.2002231    2.6971165 
   45000     1.004054    1.1921196    2.6981634 
   45100    1.0034457    1.1957707     2.700902 
   45200    0.9984291    1.1928779    2.6904846 
   45300    1.0056079    1.1886809    2.6970555 
   45400   0.99566475    1.1925908     2.686051 
   45500   0.99990227    1.1848719    2.6846883 
   45600   0.99685647    1.1877572    2.6830049 
   45700   0.99281705    1.1933509    2.6825396 
   45800    1.0012525    1.1927372    2.6945788 
   45900    1.0031116    1.1944656    2.6990958 
   46000    1.0043241    1.1978452    2.7042941 
   46100    1.0015043    1.1943395    2.6965587 
   46200    1.0024914    1.1928498    2.6965498 
   46300   0.99518717    1.1937193    2.6864631 
   46400   0.99579417    1.1904997     2.684154 
   46500   0.99975962    1.1919368    2.6915391 
   46600   0.99721937    1.1934922    2.6892843 
   46700   0.99608562    1.2042273    2.6983188 
   46800   0.99995587    1.1964778    2.6963745 
   46900     1.004273    1.1945104    2.7008827 
   47000    1.0042075    1.1922848    2.6985588 
   47100     1.000697    1.1932393    2.6942477 
   47200   0.99492924    1.1988927    2.6912497 
   47300   0.99343179    1.1867046    2.6768154 
   47400   0.99183114    1.1898691     2.677579 
   47500   0.99590848    1.1904477    2.6842735 
   47600   0.99195277    1.2006659    2.6885583 
   47700   0.99764487    1.1986225    2.6950528 
   47800    1.0035127    1.1999186    2.7051505 
   47900   0.99782465    1.2040668    2.7007668 
   48000    1.0041014    1.2022223    2.7083372 
   48100   0.99857471    1.2065579     2.704383 
   48200   0.99859758    1.1956107      2.69347 
   48300    0.9975035    1.1992966    2.6955148 
   48400   0.99118767    1.2006855    2.6874302 
   48500   0.99396191    1.2071728    2.6980788 
   48600     1.005288    1.2009966    2.7088912 
   48700    1.0039292    1.2009383    2.7067949 
   48800    1.0045015    1.2010073    2.7077223 
   48900     1.001475    1.1957475    2.6979228 
   49000    1.0002833    1.1950987    2.6954866 
   49100   0.99566292    1.1971181    2.6905755 
   49200   0.99825246    1.1959291    2.6932708 
   49300    1.0033169    1.1973721    2.7023102 
   49400     1.009605    1.1944792    2.7088493 
   49500    1.0049222    1.2030789    2.7104249 
   49600    1.0070353    1.1969244    2.7074399 
   49700    1.0042466    1.1983819    2.7047145 
   49800    1.0012181    1.1945374    2.6963274 
   49900    1.0005116     1.196367    2.6970972 
   50000   0.99616961    1.1975691    2.6917866 
   50100   0.99789265    1.2015361    2.6983381 
   50200    1.0026516     1.205424    2.7093643 
   50300    1.0045154    1.2021433    2.7088792 
   50400     1.004997    1.2088528    2.7163111 
   50500    1.0006573    1.2006936    2.7016424 
   50600    1.0026154    1.1997393    2.7036252 
   50700    1.0047832    1.1924491    2.6995866 
   50800   0.99807228     1.196847    2.6939184 
   50900   0.99946989    1.1966297    2.6957975 
   51000   0.99472409    1.1960071    2.6880564 
   51100    1.0007893    1.1913329    2.6924797 
   51200    0.9994872    1.1910045    2.6901982 
   51300    1.0024761    1.1915078    2.6951848 
   51400   0.99715835    1.1925379    2.6882384 
   51500   0.99744206    1.1923051    2.6884312 
   51600   0.99694386    1.1907201    2.6860989 
   51700   0.99275126    1.1934628    2.6825529 
   51800    1.0073969    1.1856098    2.6966678 
   51900    1.0027746    1.1911628    2.6952875 
   52000     1.001746    1.2031173    2.7056992 
   52100    1.0066293    1.1914858    2.7013924 
   52200   0.99770389    1.2003128    2.6968317 
   52300   0.99651973    1.1934644    2.6882071 
   52400    0.9901922    1.1956036    2.6808552 
   52500   0.99957505    1.1903725     2.689698 
   52600    1.0009721     1.190714     2.692135 
   52700    1.0035356     1.194294    2.6995602 
   52800    1.0022679    1.1949334    2.6982981 
   52900    1.0026333    1.1962593     2.700172 
   53000   0.99448816    1.2020821    2.6937774 
   53100    0.9950868    1.1927911    2.6853844 
   53200   0.99000627    1.1946539    2.6796266 
   53300   0.99545643    1.1891631    2.6823108 
   53400   0.99933919     1.190745    2.6897167 
   53500    1.0035501    1.1909315    2.6962195 
   53600   0.99780981    1.1997701    2.6964478 
   53700     1.003123    1.1924514    2.6970986 
   53800     1.003094    1.1920673    2.6966711 
   53900   0.99623039    1.1902521    2.6845607 
   54000   0.99731856    1.1878252    2.6837661 
   54100   0.99017282    1.1894523    2.6746748 
   54200    0.9975767    1.1893461    2.6856741 
   54300   0.99540204    1.1976242    2.6906904 
   54400   0.99650305    1.1938032    2.6885208 
   54500    1.0024042    1.1910404    2.6946096 
   54600    1.0001652    1.1853032    2.6855139 
   54700    1.0040547    1.1805899    2.6866347 
   54800   0.99718904    1.1820965    2.6778431 
   54900   0.99661549     1.180514    2.6754003 
   55000   0.99604485     1.184763    2.6787933 
   55100    1.0027395     1.186103     2.690175 
   55200   0.99863858     1.195355    2.6932758 
   55300    1.0056408    1.1890087    2.6974327 
   55400   0.99943923    1.1899131    2.6890348 
   55500   0.99868243    1.1844464     2.682433 
   55600     1.002715    1.1802703    2.6843057 
   55700   0.99875371    1.1803143    2.6784078 
   55800    1.0050108    1.1822275    2.6897065 
   55900    1.0040836    1.1848248     2.690913 
   56000     1.009199    1.1895139     2.703275 
   56100    1.0035997    1.1910924    2.6964548 
   56200    1.0040984    1.1829175    2.6890279 
   56300   0.99786865    1.1926091     2.689375 
   56400   0.99331917    1.1895045    2.6794464 
   56500    0.9987166    1.1953714    2.6934092 
   56600   0.99663349    1.1931135    2.6880268 
   56700   0.99687182    1.2000007    2.6952715 
   56800    1.0068647     1.189979    2.7002388 
   56900     1.005656    1.1971816    2.7056284 
   57000    1.0101836    1.1965957    2.7118336 
   57100    1.0043825    1.2015418    2.7080783 
   57200    1.0056873    1.1918348    2.7003285 
   57300   0.99570197    1.1952904    2.6888065 
   57400   0.99832664    1.1990703    2.6965232 
   57500   0.99511693    1.1973051    2.6899436 
   57600   0.99985165    1.1996237    2.6993641 
   57700    1.0045641    1.1935305    2.7003394 
   57800   0.99738057    1.2037824    2.6998163 
   57900    1.0057181    1.1931254    2.7016653 
   58000    1.0008586    1.1915351    2.6927859 
   58100   0.99574563    1.1942562    2.6878377 
   58200   0.99254235    1.1933431    2.6821198 
   58300   0.99836797    1.1907122    2.6882271 
   58400    1.0018696    1.1864199    2.6891871 
   58500    1.0080303    1.1896753    2.7016834 
   58600     1.000457    1.1979398    2.6985882 
   58700    1.0004615    1.1972257    2.6978808 
   58800    1.0000824    1.1860029    2.6860893 
   58900   0.99456133    1.1842584    2.6760636 
   59000   0.99812528    1.1882392    2.6853901 
   59100   0.99731803    1.1908925    2.6868326 
   59200    1.0029346    1.1912288    2.6955936 
   59300    1.0020214     1.193844     2.696839 
   59400    1.0036811    1.1906586     2.696143 
   59500     1.001859    1.1902362    2.6929875 
   59600   0.99905953    1.1869765    2.6855288 
   59700   0.99417397    1.1831277    2.6743518 
   59800   0.99506426    1.1874279    2.6799874 
   59900   0.99491847    1.1903104    2.6826512 
   60000   0.99525364    1.1933474     2.686191 
   60100    1.0066934    1.1889159    2.6989187 
   60200   0.99580647    1.1925543    2.6862271 
   60300    1.0062032    1.1881617    2.6974293 
   60400   0.99975508    1.1856348    2.6852303 
   60500   0.99490719    1.1864093    2.6787332 
   60600   0.99573765    1.1878091    2.6813787 
   60700   0.99564828     1.183467    2.6769025 
   60800    1.0004036     1.196212    2.6967804 
   60900    1.0009567    1.1939843    2.6953823 
   61000   0.99845697    1.2004094    2.6980578 
   61100     1.000595    1.1915644    2.6924199 
   61200   0.99961795    1.1912674    2.6906572 
   61300   0.99373015     1.192651    2.6832094 
   61400   0.99675434    1.1938769    2.6889714 
   61500    1.0013119    1.1953586    2.6972894 
   61600     1.005327    1.1941215    2.7020747 
   61700    1.0054467    1.1991738    2.7073065 
   61800    1.0003794    1.1987866    2.6993186 
   61900   0.99934218    1.1975949    2.6965711 
   62000   0.99494609     1.199632    2.6920143 
   62100    1.0001854    1.1961443    2.6963854 
   62200   0.99620016     1.200108    2.6943713 
   62300    1.0032811    1.2040983    2.7089827 
   62400    1.0042281    1.2073707    2.7136757 
   62500    1.0035733    1.2100661    2.7153888 
   62600    1.0033633    1.2080013    2.7130091 
   62700   0.99636116    1.2076336    2.7021384 
   62800    1.0032825    1.2014805     2.706367 
   62900   0.99435366    1.2063186    2.6978122 
   63000    1.0006014     1.202192    2.7030571 
   63100     1.004012    1.2050328    2.7110136 
   63200    1.0042752    1.2111878    2.7175634 
   63300    1.0092043    1.2042786    2.7180477 
   63400    1.0008778    1.2097061    2.7109857 
   63500   0.99923285     1.207176    2.7059882 
   63600    1.0010276    1.2024885    2.7039928 
   63700   0.99916714     1.204266    2.7029797 
   63800   0.99824789    1.2040402     2.701375 
   63900    1.0024604    1.1991817    2.7028351 
   64000   0.99663293    1.2011482    2.6960607 
   64100   0.99710438    1.1973071    2.6929267 
   64200   0.98829675    1.2033798    2.6857883 
   64300   0.99615449    1.2019313    2.6961261 
   64400   0.99983319    1.2037931    2.7035059 
   64500    1.0011192    1.2016273    2.7032689 
   64600    1.0011184    1.2024121    2.7040527 
   64700    0.9967114    1.2042891    2.6993192 
   64800    0.9951412    1.2025847    2.6952596 
   64900     0.996412    1.1939745    2.6885555 
   65000   0.99634903    1.1953631    2.6898497 
   65100   0.99557246    1.1916266    2.6849483 
   65200   0.99762309    1.1958929    2.6922905 
   65300    1.0046021    1.1949135    2.7017794 
   65400    1.0006066     1.199035    2.6999077 
   65500    1.0016267    1.2028149    2.7052178 
   65600    1.0016326    1.1938506    2.6962623 
   65700    1.0023514    1.1895562    2.6930461 
   65800   0.99640139    1.1917963    2.6863615 
   65900    0.9936203    1.1904402    2.6808338 
   66000   0.99509094    1.2006779    2.6932774 
   66100    1.0015102    1.1980367     2.700265 
   66200    0.9979644     1.205592    2.7025015 
   66300    1.0023493    1.2013659    2.7048527 
   66400    1.0007213    1.1982525    2.6992974 
   66500    1.0017071    1.1949895    2.6975131 
   66600   0.99702637    1.1971146    2.6926172 
   66700   0.99327437    1.2026336    2.6925083 
   66800    1.0031988    1.1967406    2.7015016 
   66900    1.0073255    1.1955187    2.7064697 
   67000    1.0026612    1.2038624     2.707817 
   67100    1.0010461    1.2010605    2.7025926 
   67200   0.99688857    1.1974467    2.6927426 
   67300   0.99644205    1.1957413    2.6903675 
   67400   0.99863393    1.1965233    2.6944372 
   67500   0.99708751    1.1966528    2.6922471 
   67600    1.0051018    1.1942325     2.701848 
   67700    1.0014791      1.19675    2.6989315 
   67800    1.0016995    1.1922801    2.6947922 
   67900    1.0004399    1.1927843     2.693407 
   68000    0.9870643    1.1968181     2.677378 
   68100    1.0007875    1.1892221    2.6903662 
   68200   0.99911792    1.1932655    2.6919053 
   68300   0.99963326    1.1936216    2.6930344 
   68400    1.0067747     1.189088    2.6992127 
   68500    1.0001744    1.1899191    2.6901436 
   68600    1.0026214    1.1882761     2.692171 
   68700   0.99368247    1.1986829    2.6891697 
   68800    1.0000353    1.1847394    2.6847552 
   68900   0.99698749    1.1851406    2.6805849 
   69000   0.99031242    1.1898614    2.6752933 
   69100   0.99691347    1.1816657    2.6769989 
   69200    1.0007201    1.1874664    2.6885095 
   69300   0.99822544    1.1929194    2.6902206 
   69400    1.0019195    1.1911317    2.6939739 
   69500    1.0000483    1.1914617    2.6914971 
   69600   0.99760165    1.1904975     2.686863 
   69700   0.99585754    1.1928551    2.6866045 
   69800   0.99750277    1.1855656    2.6817828 
   69900   0.99835617    1.1814376    2.6789349 
   70000   0.99449704    1.1897117    2.6814204 
   70100   0.99715529    1.1947352    2.6904312 
   70200   0.99637613    1.1989905    2.6935177 
   70300    1.0060401    1.1934076    2.7024304 
   70400   0.99970423    1.1962432    2.6957625 
   70500      1.00056    1.1923797    2.6931826 
   70600   0.99860958    1.1876188    2.6854962 
   70700   0.99769418    1.1824998    2.6790041 
   70800    0.9988778    1.1877594     2.686039 
   70900   0.99469865    1.1928635    2.6848746 
   71000    1.0034077    1.1862765    2.6913509 
   71100    1.0002032    1.1919592     2.692227 
   71200    1.0060973    1.1800571    2.6891658 
   71300    1.0016404    1.1781632    2.6805867 
   71400   0.99079548    1.1842607    2.6704171 
   71500   0.99616616    1.1813719    2.6755842 
   71600   0.99772718    1.1811412     2.677695 
   71700   0.99926726    1.1856232     2.684487 
   71800    1.0008097    1.1909615     2.692139 
   71900    1.0014341    1.1891842    2.6912982 
   72000    1.0048905     1.183993    2.6912915 
   72100    1.0020453    1.1875754    2.6906063 
   72200    1.0007626    1.1856392    2.6867461 
   72300   0.99809554    1.1831721    2.6802784 
   72400   0.99442746    1.1804546     2.672059 
   72500   0.98909617    1.1880843    2.6716919 
   72600    0.9950539     1.185749     2.678293 
   72700   0.99956757    1.1874923    2.6868066 
   72800    1.0016713    1.1875094    2.6899792 
   72900   0.99803012     1.194376    2.6913842 
   73000   0.99960328    1.2016027    2.7009705 
   73100    1.0029239    1.1943421    2.6986907 
   73200    1.0078635    1.1946643    2.7064222 
   73300    1.0012129     1.201835    2.7036172 
   73400   0.99503254    1.1992275    2.6917394 
   73500   0.99656784    1.1967765    2.6915914 
   73600   0.99688634    1.1896098    2.6849023 
   73700     1.000919    1.1907833    2.6921246 
   73800    1.0040511     1.194595    2.7006344 
   73900    1.0016657    1.1987897     2.701251 
   74000    1.0025671    1.2019043    2.7057179 
   74100   0.99754922    1.2047184    2.7010052 
   74200   0.99594595    1.2057924    2.6996744 
   74300    1.0018157    1.1983649    2.7010512 
   74400   0.99687754    1.2016504    2.6969297 
   74500    1.0026987     1.198587    2.7025979 
   74600    1.0030892    1.2028035    2.7074001 
   74700    1.0043828    1.2075643    2.7141013 
   74800    1.0073641    1.2013674    2.7123761 
   74900   0.99694297     1.205831    2.7012085 
   75000    1.0042054    1.1930963    2.6993672 
   75100   0.99770034     1.197276    2.6937895 
   75200   0.99756104    1.1991888    2.6954934 
   75300    1.0026411    1.1981686    2.7020931 
   75400    1.0037398    1.1975116    2.7030841 
   75500    1.0079673    1.1994574     2.711371 
   75600     1.007411    1.2029827    2.7140618 
   75700    1.0036809    1.1961188    2.7016029 
   75800    1.0017797    1.1935147    2.6961471 
   75900   0.99352377    1.2008631    2.6911119 
   76000   0.99595576    1.1983876    2.6922843 
   76100   0.99665689    1.2032272    2.6981756 
   76200   0.99844116    1.2061086    2.7037333 
   76300    1.0027075     1.206602    2.7106261 
   76400    1.0010166     1.203277    2.7047648 
   76500    1.0038715    1.2026788    2.7084489 
   76600   0.99847409    1.2040901    2.7017642 
   76700   0.99927269     1.200249     2.699121 
   76800   0.99826976    1.2064572    2.7038248 
   76900   0.99741492    1.2020582    2.6981436 
   77000    1.0025839    1.2000551    2.7038938 
   77100     1.005916    1.1929982    2.7018349 
   77200     1.003586    1.1938847    2.6992266 
   77300   0.99977354    1.1993942    2.6990174 
   77400   0.99783031    1.1976573    2.6943657 
   77500   0.99661136    1.1953395    2.6902196 
   77600   0.99899435    1.1927337    2.6911882 
   77700    1.0031178    1.1926046    2.6972442 
   77800    1.0029121    1.1979575    2.7022885 
   77900    1.0019403    1.2071217     2.709995 
   78000   0.99703247    1.2104554    2.7059671 
   78100    1.0009274    1.2032302    2.7045842 
   78200    1.0006596    1.2017058    2.7026581 
   78300   0.99379451    1.1955937    2.6862487 
   78400   0.99296173    1.2011453    2.6905511 
   78500    1.0009036    1.1916931    2.6930114 
   78600   0.99887916    1.1952022    2.6934839 
   78700     0.999603    1.2048581    2.7042256 
   78800    1.0040933    1.1944076    2.7005102 
   78900    1.0031996    1.1950677    2.6998299 
   79000     1.001686    1.1953604    2.6978523 
   79100   0.99537898    1.1986792    2.6917108 
   79200    1.0028593    1.1916121    2.6958638 
   79300    1.0003984    1.1924788    2.6930394 
   79400    1.0010346    1.1918659    2.6933807 
   79500    1.0023174    1.1901822    2.6936211 
   79600    0.9942107     1.199228    2.6905072 
   79700    1.0034297    1.1876583    2.6927657 
   79800    1.0012567    1.1912307    2.6930787 
   79900   0.99779255    1.2003453    2.6969971 
   80000     1.005613    1.1930081    2.7013903 
   80100    1.0037698    1.1963856    2.7020031 
