LAMMPS (3 Mar 2020)
  using 8 OpenMP thread(s) per MPI task
## binning x:130-500, y:0.0-121.83, z:11.79-98.0

############################################################
#####	 	    Argon sandwich	   	   #########
############################################################
variable		T equal 33.0
variable 		V equal vol
variable 		dt equal 5.0
variable 		epsilon equal 0.0656
variable 		sigma equal 3.5

units			real
atom_style		bond
special_bonds 		fene

dimension 		3
boundary		p p f

read_data 		bond_atomdata
  orthogonal box = (0 0 0) to (687.75 121.83 110.05)
  4 by 1 by 1 MPI processor grid
  reading atoms ...
  81390 atoms
  scanning bonds ...
  1 = max bonds/atom
  reading bonds ...
  42735 bonds
  2 = max # of 1-2 neighbors
  2 = max # of special neighbors
  special bonds CPU = 0.00664401 secs
  read_data CPU = 0.154847 secs
#read_data 		bond_atomdata_small
#read_data		atomdata
#read_data         	atomdata_small
#read_restart 		water.restart.mpiio

############################################################
#############INTERACTION PARAMETERS#########################
group                   bread     type 2
32550 atoms in group bread
group                   ham       type 1
48840 atoms in group ham

mass                    2       12.0  ## atomic mass of platinum
mass                    1       12.0  ## atomic mass of platinum

neighbor        	2.0 bin
neigh_modify		every 1 delay 10 check yes
################### L-J potential #####################
pair_style              lj/cut  5.5

pair_coeff              1 1  0.0656 3.5 8.75
pair_coeff              1 2  0.0656 3.5 8.75
pair_coeff              2 2  0.05248 3.5 8.75
#################### FENE bond #########################
bond_style 		fene
bond_coeff 		1 0.0655 4.9 0.0 0.0
#################### Harmonic potential ##################
fix 			wall bread spring/self 5.355101

thermo 			10
min_style 		fire
min_modify 		dmax 0.01
minimize 		1.0e-5 1.0e-7 200 10000
WARNING: Using 'neigh_modify every 1 delay 0 check yes' setting during minimization (../min.cpp:190)
Neighbor list info ...
  update every 1 steps, delay 0 steps, check yes
  max neighbors/atom: 2000, page size: 100000
  master list distance cutoff = 10.75
  ghost atom cutoff = 10.75
  binsize = 5.375, bins = 128 23 21
  1 neighbor lists, perpetual/occasional/extra = 1 0 0
  (1) pair lj/cut, perpetual
      attributes: half, newton on
      pair build: half/bin/newton
      stencil: half/bin/3d/newton
      bin: standard
  Parameters for fire: 
    dmax delaystep dtgrow dtshrink alpha0 alphashrink tmax tmin    integrator halfstepback 
    0.01        20    1.1      0.5   0.25        0.99   10 0.02 eulerimplicit          yes 
Per MPI rank memory allocation (min/avg/max) = 19.83 | 28.41 | 50.21 Mbytes
Step Temp E_pair E_mol TotEng Press 
       0            0    198362.13    15920.286    214282.42    7704.8798 
      10    7.4160698    195795.04    15894.256    213488.48      7631.57 
      20    23.740708    190454.64    15825.727    212039.98    7479.0318 
      30    41.961885    184617.48    15735.886    210533.53    7311.7814 
      40    59.157975    179267.78    15648.467    209268.28    7159.4371 
      50     75.61341    174277.05    15566.837    208188.09    7018.1462 
      60    91.530365     169563.6    15491.412    207260.75    6885.3491 
      70    107.02874    165070.59    15421.605    206457.92    6759.3173 
      80    122.15405    160742.56    15356.612    205734.38    6638.6558 
      90    136.90982    156563.63    15295.651    205074.31    6522.6969 
     100    151.29708    152512.91    15238.042    204456.41    6410.7258 
     110    165.35541    148578.84    15183.201    203878.12    6302.1339 
     120    179.17479    144729.87    15130.659    203329.26    6195.9939 
     130    192.87216     140935.1    15080.022     202806.9    6091.4216 
     140     206.5513    137158.82    15030.942    202300.17    5987.5337 
     150    220.26209    133393.42     14983.16    201813.29    5883.9929 
     160    233.99064     129627.8    14936.578    201331.71     5780.565 
     170    247.71545    125865.29    14891.101    200853.43    5677.2224 
     180    261.40429    122103.79    14846.733    200368.55    5573.8888 
     190    275.02101    118340.05    14803.619    199865.19    5470.4855 
     200     288.5367    114566.44    14762.069       199329     5366.825 
Loop time of 10.9485 on 32 procs for 200 steps with 81390 atoms

89.4% CPU use with 4 MPI tasks x 8 OpenMP threads

Minimization stats:
  Stopping criterion = max iterations
  Energy initial, next-to-last, final = 
          214282.42013      129710.724257      129328.508173
  Force two-norm initial, final = 1371.29 289.694
  Force max component initial, final = 23.2498 2.42652
  Final line search alpha, max atom move = 0 0
  Iterations, force evaluations = 200 201

MPI task timing breakdown:
Section |  min time  |  avg time  |  max time  |%varavg| %total
---------------------------------------------------------------
Pair    | 0.42625    | 3.3265     | 9.745      | 209.2 | 30.38
Bond    | 4.7445e-05 | 0.090019   | 0.28734    |  39.2 |  0.82
Neigh   | 0.082477   | 0.08468    | 0.085916   |   0.5 |  0.77
Comm    | 0.38171    | 5.209      | 9.8161     | 166.2 | 47.58
Output  | 0.011954   | 0.012588   | 0.013087   |   0.4 |  0.11
Modify  | 0.012934   | 0.015084   | 0.016764   |   1.3 |  0.14
Other   |            | 2.211      |            |       | 20.19

Nlocal:    20347.5 ave 47256 max 7998 min
Histogram: 2 0 1 0 0 0 0 0 0 1
Nghost:    7297.5 ave 14148 max 2400 min
Histogram: 2 0 0 0 0 0 1 0 0 1
Neighs:    1.33643e+06 ave 3.8463e+06 max 216104 min
Histogram: 2 0 1 0 0 0 0 0 0 1

Total # of neighbors = 5345721
Ave neighs/atom = 65.6803
Ave special neighs/atom = 1.05013
Neighbor list builds = 1
Dangerous builds = 0

############################################################
#############EQUILIBRATION PARAMETERS######################
velocity 		ham create ${T} 12345
velocity 		ham create 33 12345
velocity                bread set 0.0 0.0 0.0
compute 		myTemp ham temp
fix			1 ham nvt temp ${T} ${T} 100.0
fix			1 ham nvt temp 33 ${T} 100.0
fix			1 ham nvt temp 33 33 100.0
fix_modify   		1 temp myTemp
WARNING: Temperature for fix modify is not for group all (../fix_nh.cpp:1409)
timestep 		${dt}
timestep 		5

run 			100
Per MPI rank memory allocation (min/avg/max) = 19.83 | 28.41 | 50.22 Mbytes
Step Temp E_pair E_mol TotEng Press 
     200    19.802271    114566.44    14762.069    134132.64    5043.6176 
     210    40.316858    109482.97    14827.821    134091.87    4910.3654 
     220     165.2909    74620.889    15505.557    130226.87    3957.9073 
     230    242.33264    25460.696    19333.378    103585.22    2406.3412 
     240    152.46913     8899.412    23913.402     69802.61       1631.5 
     250    101.64659   -514.59593    26421.945    50567.335    1200.3259 
     260    80.379404   -6249.4398    26781.126    40032.143    997.81233 
     270    66.582231    -9640.928    25674.133    32186.397    915.05469 
     280      55.2918   -12270.478    24430.103      25573.7    852.06303 
     290    46.129296   -14546.276    23601.064    20245.993    787.71554 
     300    39.115369   -16541.074    23116.045    16064.561    726.06594 
Loop time of 38.1266 on 32 procs for 100 steps with 81390 atoms

Performance: 1.133 ns/day, 21.181 hours/ns, 2.623 timesteps/s
68.6% CPU use with 4 MPI tasks x 8 OpenMP threads

MPI task timing breakdown:
Section |  min time  |  avg time  |  max time  |%varavg| %total
---------------------------------------------------------------
Pair    | 0.1427     | 1.6537     | 5.2568     | 164.3 |  4.34
Bond    | 2.265e-05  | 7.912      | 31.571     | 485.6 | 20.75
Neigh   | 0.88905    | 0.90627    | 0.92251    |   1.3 |  2.38
Comm    | 0.18604    | 18.588     | 36.85      | 414.3 | 48.75
Output  | 0.0065265  | 0.0075585  | 0.0081832  |   0.7 |  0.02
Modify  | 0.030386   | 9.0311     | 35.752     | 513.4 | 23.69
Other   |            | 0.02802    |            |       |  0.07

Nlocal:    20347.5 ave 47183 max 7998 min
Histogram: 2 0 1 0 0 0 0 0 0 1
Nghost:    7226.5 ave 14216 max 2400 min
Histogram: 2 0 0 0 0 0 1 0 0 1
Neighs:    1.32007e+06 ave 3.78044e+06 max 216113 min
Histogram: 2 0 1 0 0 0 0 0 0 1

Total # of neighbors = 5280267
Ave neighs/atom = 64.8761
Ave special neighs/atom = 1.05013
Neighbor list builds = 7
Dangerous builds = 1

###########################################################
############### Post parameters############################
reset_timestep  	0
compute 		bins ham chunk/atom bin/3d x 130.0 4 y 0.0 4.08 z 11.79 4.312 bound 			x 130.0 500.0 bound y 0.0 121.83 bound z 11.79 98.0
fix  			d ham ave/chunk 1 1 10 bins density/number norm sample 			file bond_bins_dens.dat
thermo_style    	custom step temp pe etotal
thermo_modify	        temp myTemp
WARNING: Temperature for thermo pressure is not for group all (../thermo.cpp:485)
thermo			100
fix            		extra ham print 1000 "$(step) $(temp) $(pe)" append iteration_info.dat 			screen no

#restart     		100000 water.restart.mpiio
dump			1 all custom 200 new_bond_sandwich.dat id type x y z
run			200000
Per MPI rank memory allocation (min/avg/max) = 27.24 | 36.14 | 58.93 Mbytes
Step Temp PotEng TotEng 
       0    65.184806    6574.9706    16064.561 
     100    32.770173   -5074.0542   -303.37963 
     200    32.901083   -9213.0652   -4423.3327 
     300    33.213402    -11324.09   -6488.8899 
     400    32.955336   -13042.452    -8244.821 
     500    33.028956   -14203.636   -9395.2879 
     600    33.032954   -15384.384   -10575.454 
     700    32.797084   -16369.933   -11595.341 
     800    33.166941   -17258.941   -12430.505 
     900    32.994256   -18166.323   -13363.027 
    1000    32.922276   -19161.829   -14369.011 
    1100    32.994496   -20236.643   -15433.312 
    1200    33.157621   -21490.487   -16663.407 
    1300    33.179715   -22863.952   -18033.656 
    1400    33.127125   -24297.654   -19475.014 
    1500    33.109939    -25692.03   -20871.892 
    1600    33.071915   -27024.637   -22210.035 
    1700    32.947419   -28325.326   -23528.848 
    1800    32.924742   -29620.474   -24827.297 
    1900    32.971481    -30696.75   -25896.769 
    2000     33.02922   -31561.466   -26753.079 
    2100    33.021832   -32217.226   -27409.915 
    2200    33.053103   -32664.842   -27852.979 
    2300    32.949192   -32925.662   -28128.925 
    2400    32.964488    -33043.85   -28244.887 
    2500    32.861583   -33083.418   -28299.436 
    2600    32.961405   -33041.402   -28242.888 
    2700    32.823849    -32997.53   -28219.042 
    2800    32.756971   -32898.645   -28129.892 
    2900    33.067898   -32833.543   -28019.526 
    3000    33.110404   -32783.053   -27962.848 
    3100    32.877056   -32726.785    -27940.55 
    3200    32.885508   -32654.247   -27866.782 
    3300    33.021783   -32654.998   -27847.694 
    3400    32.967353    -32647.38   -27847.999 
    3500     33.01553   -32691.177   -27884.784 
    3600    32.922104   -32706.788   -27913.995 
    3700    32.995001    -32728.16   -27924.755 
    3800    32.661476   -32813.487   -28058.636 
    3900    32.861585   -32845.706   -28061.723 
    4000    32.893484    -32888.17   -28099.543 
    4100    33.143507   -33012.021   -28186.996 
    4200    32.867243   -33115.272   -28330.466 
    4300     32.64757   -33206.538   -28453.711 
    4400    33.202811   -33312.492   -28478.835 
    4500    32.891479   -33348.817   -28560.482 
    4600    33.077044   -33474.205   -28658.856 
    4700    33.145292   -33567.755    -28742.47 
    4800    33.138525   -33636.737   -28812.438 
    4900     32.87158   -33682.228   -28896.791 
    5000    32.896355   -33818.495    -29029.45 
    5100    33.171021   -33910.314   -29081.284 
    5200    33.010562   -33962.892   -29157.222 
    5300    33.148719   -34043.849   -29218.066 
    5400    33.009674   -34130.135   -29324.594 
    5500    33.168911   -34204.579   -29375.856 
    5600     32.99802   -34244.832   -29440.988 
    5700    33.008231   -34349.533   -29544.201 
    5800    32.944941   -34413.155   -29617.038 
    5900    33.146223   -34466.704   -29641.284 
    6000    33.209348   -34520.031   -29685.422 
    6100    32.898421    -34512.55   -29723.205 
    6200    33.044903   -34584.878   -29774.208 
    6300    33.094746   -34612.801   -29794.875 
    6400    32.814346   -34622.636   -29845.531 
    6500    33.000183   -34629.001   -29824.841 
    6600    33.001245   -34668.698   -29864.384 
    6700    33.304282   -34684.377   -29835.947 
    6800    32.780561   -34700.704   -29928.518 
    6900    33.083336   -34727.177   -29910.912 
    7000    33.091754   -34720.542   -29903.051 
    7100    32.859114   -34717.657   -29934.034 
    7200    32.962364   -34737.626   -29938.972 
    7300    33.017589   -34749.204    -29942.51 
    7400    33.070424   -34720.842   -29906.457 
    7500    33.161878   -34686.811   -29859.112 
    7600    32.803232   -34680.977    -29905.49 
    7700    32.884245   -34720.498   -29933.217 
    7800    32.861568   -34734.665   -29950.685 
    7900    32.905317   -34692.872   -29902.523 
    8000    32.896308   -34711.506   -29922.469 
    8100    33.023518   -34718.685   -29911.129 
    8200    32.909119   -34726.247   -29935.344 
    8300    32.851678   -34707.308   -29924.768 
    8400    33.008851   -34734.686   -29929.265 
    8500    33.229188   -34703.002   -29865.504 
    8600    33.013351   -34692.068   -29885.991 
    8700    33.202226   -34709.613    -29876.04 
    8800    33.067717   -34769.189   -29955.197 
    8900     32.82305   -34725.637   -29947.265 
    9000    33.233735   -34744.444   -29906.284 
    9100    32.935855   -34767.061   -29972.266 
    9200    32.957294   -34771.082   -29973.166 
    9300    33.088177   -34736.365   -29919.395 
    9400    33.148052    -34794.18   -29968.493 
    9500    33.054171   -34790.729    -29978.71 
    9600     33.00792   -34804.554   -29999.269 
    9700    32.949997   -34861.501   -30064.648 
    9800    32.993803   -34858.552   -30055.322 
    9900     32.76741   -34850.793   -30080.521 
   10000    32.900595   -34879.533   -30089.871 
   10100    33.050224   -34897.229   -30085.785 
   10200    33.081718   -34897.842   -30081.812 
   10300    33.333963    -34894.44   -30041.689 
   10400    33.169147   -34915.932   -30087.175 
   10500     32.98338   -34901.598   -30099.885 
   10600    32.919272   -34928.286   -30135.906 
   10700    32.870682   -34934.366   -30149.059 
   10800    32.995296   -34956.866   -30153.418 
   10900    33.021528   -34974.937    -30167.67 
   11000     32.75036   -34977.178   -30209.388 
   11100    32.955844   -35005.063   -30207.359 
   11200    33.059198   -34986.585   -30173.834 
   11300    33.142764   -34996.504   -30171.588 
   11400    32.913947   -35027.568   -30235.963 
   11500    33.064403   -35044.332   -30230.823 
   11600    32.887829   -35039.538   -30251.735 
   11700    32.921604   -35067.158   -30274.438 
   11800    33.072222    -35043.37   -30228.723 
   11900    33.323355   -35080.811   -30229.604 
   12000    33.052759   -35062.318   -30250.504 
   12100    33.057957    -35046.93    -30234.36 
   12200    32.778045   -35056.643   -30284.823 
   12300    33.093105   -35008.667    -30190.98 
   12400    32.862575   -35014.146   -30230.019 
   12500    32.983846   -35040.015   -30238.234 
   12600    33.129059   -35019.801    -30196.88 
   12700    32.899499   -35002.393   -30212.891 
   12800    32.927075   -35004.805   -30211.289 
   12900    33.100775   -35029.427   -30210.623 
   13000    32.835486   -35031.687   -30251.504 
   13100    33.429717   -35042.692   -30176.001 
   13200    33.000675   -35022.243   -30218.011 
   13300    33.104403    -35035.38   -30216.048 
   13400     33.08863   -35039.725    -30222.69 
   13500    32.836912   -35060.246   -30279.855 
   13600    32.916234   -35071.559   -30279.621 
   13700    33.115716    -35081.17   -30260.191 
   13800    32.902933   -35069.438   -30279.436 
   13900    32.832226   -35104.404   -30324.696 
   14000    33.355758    -35070.76   -30214.836 
   14100    33.023928   -35096.993   -30289.377 
   14200    32.944585   -35132.041   -30335.976 
   14300    33.144038     -35073.1   -30247.998 
   14400     32.90068    -35132.48   -30342.806 
   14500    32.887076   -35095.746   -30308.053 
   14600    33.211048    -35138.98   -30304.123 
   14700    32.761467   -35133.235   -30363.827 
   14800    33.120722   -35120.386   -30298.678 
   14900    33.111363    -35127.77   -30307.425 
   15000    33.176284   -35123.861   -30294.065 
   15100    33.085374   -35151.004   -30334.443 
   15200    33.018245   -35151.492   -30344.703 
   15300    33.177588   -35148.109   -30318.123 
   15400    33.123539   -35173.381   -30351.264 
   15500    33.030122   -35165.665   -30357.147 
   15600    33.076752   -35191.155   -30375.849 
   15700    32.984014   -35197.705   -30395.899 
   15800      33.0813   -35138.581   -30322.613 
   15900    32.807366   -35145.213   -30369.124 
   16000    32.952452   -35170.173   -30372.962 
   16100    33.138402   -35151.076   -30326.795 
   16200    33.056781    -35148.87   -30336.471 
   16300    33.036268   -35158.684   -30349.271 
   16400    33.108099   -35173.048   -30353.178 
   16500    33.054761   -35187.169   -30375.064 
   16600    33.048147   -35154.281   -30343.139 
   16700    32.877588   -35153.235   -30366.923 
   16800    33.049605   -35185.928   -30374.574 
   16900     32.97246   -35173.002   -30372.878 
   17000     33.22519   -35197.155    -30360.24 
   17100    33.214942   -35211.992   -30376.568 
   17200    33.018965   -35201.842   -30394.949 
   17300    32.824311   -35179.063   -30400.507 
   17400    32.883313   -35218.147   -30431.001 
   17500    33.011025     -35214.7   -30408.962 
   17600    33.096732   -35251.762   -30433.547 
   17700    33.059717   -35244.544   -30431.718 
   17800    33.011776   -35249.576   -30443.729 
   17900    33.017879   -35235.219   -30428.483 
   18000    32.886217   -35231.928   -30444.359 
   18100    32.936369   -35242.811   -30447.941 
   18200    33.188908   -35229.471   -30397.837 
   18300    32.800008   -35248.937   -30473.919 
   18400    32.916351   -35251.843   -30459.888 
   18500    32.800762   -35273.141   -30498.013 
   18600    32.965789   -35279.975   -30480.823 
   18700    33.244183   -35243.859   -30404.178 
   18800    33.056103   -35264.492   -30452.191 
   18900    33.161606   -35253.137   -30425.477 
   19000    33.148856   -35273.477   -30447.673 
   19100    33.169064   -35290.133   -30461.388 
   19200    33.062272    -35284.64   -30471.441 
   19300    32.966738   -35253.682   -30454.392 
   19400    32.735417   -35280.653   -30515.038 
   19500    32.822918   -35280.053     -30501.7 
   19600    32.970752    -35256.51   -30456.635 
   19700     32.97768     -35262.6   -30461.717 
   19800    32.972416   -35269.235   -30469.118 
   19900    32.877094   -35278.326   -30492.086 
   20000    32.712459    -35291.16   -30528.888 
   20100     32.95349   -35280.067   -30482.705 
   20200    33.097719    -35291.93   -30473.572 
   20300    32.986546   -35304.385   -30502.211 
   20400    33.131307   -35318.228    -30494.98 
   20500     33.04651   -35304.936   -30494.032 
   20600    32.940899   -35317.913   -30522.384 
   20700    33.116789   -35308.329   -30487.194 
   20800    32.994292   -35330.342    -30527.04 
   20900    32.853562   -35323.079   -30540.264 
   21000    33.009942   -35331.942   -30526.362 
   21100    32.993772   -35323.178   -30519.952 
   21200    33.068104   -35305.014   -30490.967 
   21300    33.037349    -35329.98    -30520.41 
   21400    32.788339   -35313.885   -30540.565 
   21500    32.837353   -35322.619   -30542.164 
   21600    32.863162   -35332.068   -30547.856 
   21700     32.78561   -35268.684   -30495.763 
   21800     33.04736     -35301.4   -30490.372 
   21900    33.038018   -35297.497   -30487.829 
   22000    32.689856   -35318.213   -30559.231 
   22100    32.887222   -35302.782   -30515.067 
   22200    33.060285   -35306.395   -30493.486 
   22300    32.993527   -35308.517   -30505.326 
   22400    33.046719   -35297.649   -30486.714 
   22500    32.819492   -35314.412   -30536.557 
   22600    32.809634   -35319.526   -30543.106 
   22700     32.85326   -35297.529   -30514.758 
   22800     33.00568   -35295.989   -30491.029 
   22900    33.131492   -35351.053   -30527.778 
   23000    33.041325   -35322.637   -30512.488 
   23100    33.133973   -35335.751   -30512.114 
   23200    32.795742     -35349.8   -30575.403 
   23300     32.86536   -35357.241   -30572.709 
   23400    32.859343   -35339.462   -30555.806 
   23500    33.124955   -35341.356   -30519.032 
   23600    33.038712   -35325.321   -30515.553 
   23700    32.927903   -35341.582   -30547.945 
   23800    33.028533    -35349.44   -30541.154 
   23900    33.200006    -35339.11    -30505.86 
   24000    32.871582   -35336.643   -30551.205 
   24100    32.961205   -35324.327   -30525.842 
   24200    33.053862   -35370.086   -30558.112 
   24300    33.180991   -35339.873   -30509.391 
   24400    32.905897   -35329.712   -30539.279 
   24500    32.846996   -35343.104   -30561.246 
   24600    32.671765   -35322.238   -30565.889 
   24700    32.833918   -35337.183   -30557.228 
   24800    32.855202   -35337.182   -30554.129 
   24900    32.975222   -35351.273   -30550.748 
   25000    32.985574   -35343.061   -30541.029 
   25100    32.953761   -35340.189   -30542.788 
   25200    33.241519   -35364.381   -30525.088 
   25300    32.848152   -35367.648   -30585.621 
   25400    33.120808   -35387.648   -30565.928 
   25500    33.001627   -35375.904   -30571.535 
   25600    32.958964    -35387.86   -30589.701 
   25700      33.0309    -35392.15   -30583.519 
   25800    33.248794    -35350.82   -30510.468 
   25900    32.764934   -35364.765   -30594.853 
   26000     32.81436   -35387.442   -30610.335 
   26100    33.281823   -35400.529   -30555.369 
   26200    32.985547   -35378.874   -30576.845 
   26300    33.330289   -35395.343   -30543.126 
   26400    32.997391   -35413.905   -30610.152 
   26500    33.052051   -35402.585   -30590.875 
   26600    32.872454   -35418.291   -30632.726 
   26700    33.190669   -35380.331    -30548.44 
   26800    32.954061   -35375.935    -30578.49 
   26900     32.93785   -35388.541   -30593.456 
   27000     33.13813   -35369.295   -30545.053 
   27100    33.068688   -35373.293    -30559.16 
   27200    33.149153    -35349.84   -30523.993 
   27300    33.129337   -35349.516   -30526.554 
   27400    33.007098   -35376.892   -30571.726 
   27500    32.986196   -35384.231   -30582.108 
   27600    32.751165    -35376.06   -30608.152 
   27700    33.124919    -35383.47   -30561.152 
   27800    33.093885   -35362.536   -30544.735 
   27900    32.850258   -35382.936   -30600.603 
   28000    32.961106   -35397.709   -30599.239 
   28100    33.048372   -35388.485    -30577.31 
   28200    33.037189   -35390.192   -30580.646 
   28300    33.027977   -35405.804   -30597.598 
   28400    33.072732   -35391.575   -30576.854 
   28500    32.996196   -35417.904   -30614.325 
   28600    32.992386       -35427   -30623.976 
   28700      33.1307   -35409.789   -30586.628 
   28800    33.155599   -35380.477   -30553.692 
   28900    33.086828   -35414.783    -30598.01 
   29000    33.098107   -35421.483   -30603.068 
   29100    33.061311   -35423.629    -30610.57 
   29200     32.90859   -35395.589   -30604.764 
   29300    33.090941   -35392.878   -30575.506 
   29400    32.827111   -35403.949   -30624.985 
   29500     33.11398   -35464.118   -30643.392 
   29600    33.000826   -35435.131   -30630.878 
   29700    32.979151   -35420.023   -30618.925 
   29800    32.928007   -35437.776   -30644.124 
   29900    32.850687   -35411.213   -30628.817 
   30000    33.121881   -35425.471   -30603.595 
   30100     32.64236   -35405.384   -30653.317 
   30200    33.141248   -35458.419   -30633.723 
   30300    33.032062   -35432.285   -30623.485 
   30400    33.156342   -35463.297   -30636.404 
   30500    33.030379   -35465.097   -30656.542 
   30600    33.293147   -35416.929    -30570.12 
   30700    32.982172   -35434.407    -30632.87 
   30800    32.960429   -35444.147   -30645.775 
   30900    33.029634   -35478.263   -30669.817 
   31000    33.118677   -35425.626   -30604.216 
   31100    33.036927   -35444.346   -30634.838 
   31200    33.020099   -35425.133   -30618.074 
   31300    33.017505   -35431.777   -30625.095 
   31400    33.354615   -35392.695   -30536.937 
   31500    33.213446   -35437.894   -30602.688 
   31600    32.868885   -35415.949   -30630.903 
   31700    32.830685   -35413.945   -30634.461 
   31800    33.042998   -35443.367   -30632.975 
   31900    32.916877   -35408.709   -30616.677 
   32000    32.647247   -35426.051   -30673.272 
   32100    33.041374   -35404.663   -30594.506 
   32200    33.028005   -35431.171   -30622.961 
   32300    32.883162    -35445.52   -30658.397 
   32400    32.910939   -35407.906   -30616.739 
   32500    32.998049    -35454.35   -30650.501 
   32600    32.881675   -35453.901   -30666.993 
   32700    32.986626   -35431.466    -30629.28 
   32800     32.96751   -35422.841   -30623.438 
   32900    33.176163   -35451.279     -30621.5 
   33000    32.739253   -35462.049   -30695.875 
   33100    32.759043     -35446.3   -30677.246 
   33200    32.987814    -35439.97   -30637.611 
   33300    33.090978    -35444.06   -30626.683 
   33400    33.103179   -35471.055   -30651.901 
   33500    32.808087    -35493.96   -30717.766 
   33600    32.945627    -35512.63   -30716.413 
   33700    32.997718   -35465.727   -30661.926 
   33800    32.936902   -35459.877    -30664.93 
   33900    32.976475   -35485.225   -30684.517 
   34000    32.943308   -35481.874   -30685.995 
   34100    33.068178   -35501.306   -30687.248 
   34200    33.153811   -35476.001   -30649.476 
   34300    32.795543   -35463.355   -30688.987 
   34400    32.947557   -35475.214   -30678.716 
   34500    33.047825   -35471.975    -30660.88 
   34600    32.938417   -35479.203   -30684.035 
   34700    33.011244   -35463.126   -30657.356 
   34800    33.058931   -35487.646   -30674.934 
   34900     32.93328   -35470.253   -30675.833 
   35000    32.930628   -35465.436   -30671.402 
   35100    32.903731   -35476.775   -30686.658 
   35200    33.250521   -35473.244    -30632.64 
   35300    32.836117   -35481.088   -30700.813 
   35400    32.944296   -35470.873    -30674.85 
   35500    32.801727   -35458.054   -30682.785 
   35600     32.89852   -35418.479    -30629.12 
   35700    33.005447   -35468.574   -30663.649 
   35800    32.888717    -35463.05   -30675.118 
   35900    32.755331   -35493.887   -30725.373 
   36000     32.92614    -35475.17    -30681.79 
   36100    33.200413    -35471.55   -30638.241 
   36200    33.049483   -35502.832   -30691.495 
   36300    33.117894   -35472.901   -30651.605 
   36400    32.961927   -35508.125   -30709.535 
   36500    33.089948   -35463.065   -30645.838 
   36600    32.887062   -35434.711    -30647.02 
   36700    32.894788   -35477.252   -30688.436 
   36800    33.002129   -35488.588   -30684.145 
   36900    32.739871   -35496.033    -30729.77 
   37000    32.974615   -35499.261   -30698.824 
   37100    33.003559   -35515.135   -30710.484 
   37200    32.864462   -35463.747   -30679.346 
   37300    33.056208   -35511.796   -30699.481 
   37400     33.02317   -35509.046    -30701.54 
   37500    32.997017   -35496.944   -30693.246 
   37600    32.861323   -35496.313   -30712.368 
   37700    32.942922   -35481.344   -30685.521 
   37800    32.783366   -35493.323   -30720.727 
   37900      32.8115   -35518.792   -30742.101 
   38000    33.066144   -35499.567   -30685.805 
   38100    33.027406   -35513.256   -30705.133 
   38200     32.96163   -35508.313   -30709.766 
   38300    32.920838   -35522.468   -30729.859 
   38400    33.016989   -35499.871   -30693.265 
   38500    33.028614   -35515.033   -30706.735 
   38600    32.900263   -35471.327   -30681.714 
   38700    32.865052   -35456.544   -30672.057 
   38800    32.882675   -35513.287   -30726.234 
   38900    32.896899   -35490.822   -30701.699 
   39000    32.974142   -35509.232   -30708.863 
   39100    33.177195   -35471.188   -30641.259 
   39200    32.875119   -35436.725   -30650.772 
   39300    32.938819   -35478.676   -30683.449 
   39400    33.169961   -35455.084   -30626.209 
   39500    33.257286   -35489.024   -30647.436 
   39600     32.83593   -35469.562   -30689.315 
   39700    33.213815   -35488.311   -30653.052 
   39800    32.949303   -35499.819   -30703.067 
   39900    33.065744    -35486.66   -30672.956 
   40000    33.192331   -35480.085   -30647.953 
   40100    33.016921   -35519.694   -30713.098 
   40200    33.078046   -35490.418   -30674.923 
   40300    32.791683   -35495.507     -30721.7 
   40400    33.132544    -35490.28   -30666.851 
   40500    32.878863   -35515.197     -30728.7 
   40600    33.096885    -35488.36   -30670.122 
   40700    32.665916    -35550.33   -30794.834 
   40800    33.025474    -35530.22   -30722.379 
   40900    33.050558   -35525.784   -30714.291 
   41000    32.921636       -35524   -30731.275 
   41100    33.065919   -35529.825   -30716.095 
   41200    33.017447   -35520.089   -30713.417 
   41300    33.002651   -35541.465   -30736.946 
   41400    32.968344   -35503.892   -30704.368 
   41500    33.115814   -35491.953    -30670.96 
   41600    33.041127   -35530.874   -30720.754 
   41700    33.038121   -35527.118   -30717.436 
   41800    33.127519   -35498.122   -30675.425 
   41900    33.177276   -35533.185   -30703.245 
   42000    32.854899   -35510.416   -30727.407 
   42100    32.766289   -35541.856   -30771.747 
   42200    32.980425   -35501.387   -30700.104 
   42300    32.960829   -35499.485   -30701.055 
   42400    33.161198   -35533.724   -30706.124 
   42500    33.021305   -35512.237   -30705.003 
   42600    32.894691    -35532.48   -30743.678 
   42700    33.141965    -35536.57    -30711.77 
   42800    33.242858   -35541.289   -30701.801 
   42900    33.012582   -35526.633   -30720.668 
   43000    32.824076   -35527.607   -30749.085 
   43100    32.902531    -35526.25   -30736.306 
   43200    32.972748    -35538.32   -30738.155 
   43300    33.204845   -35568.264    -30734.31 
   43400    32.994599    -35530.92   -30727.573 
   43500    32.879257   -35509.386   -30722.831 
   43600    32.812137   -35568.016   -30791.232 
   43700    33.110734   -35568.064   -30747.811 
   43800    32.826038   -35542.004   -30763.197 
   43900    32.848564   -35551.021   -30768.934 
   44000    33.068803   -35511.408   -30697.259 
   44100    32.931779   -35530.366   -30736.164 
   44200    32.803945   -35529.141   -30753.549 
   44300    33.042883   -35587.551   -30777.176 
   44400     32.95558   -35548.832   -30751.166 
   44500    32.827444    -35541.36   -30762.348 
   44600    32.819416   -35531.214   -30753.371 
   44700    33.044412   -35546.493   -30735.894 
   44800    33.162928   -35553.454   -30725.602 
   44900    32.925785   -35555.508    -30762.18 
   45000     32.73376   -35528.805   -30763.431 
   45100    32.774472   -35571.932   -30800.631 
   45200    33.144719   -35530.307   -30705.106 
   45300    32.956794   -35546.049   -30748.206 
   45400    32.917032   -35561.782   -30769.728 
   45500    32.970084   -35554.784   -30755.006 
   45600    32.992088   -35557.402   -30754.421 
   45700    32.842976   -35514.915   -30733.642 
   45800    33.123178   -35558.974   -30736.909 
   45900    32.948095   -35562.081   -30765.504 
   46000    32.923589   -35578.276   -30785.267 
   46100      33.1764   -35555.635   -30725.822 
   46200    33.155929    -35541.54   -30714.707 
   46300    32.863409   -35572.144   -30787.896 
   46400    33.052774   -35561.628   -30749.812 
   46500    33.005998   -35583.932   -30778.926 
   46600    33.212623   -35546.219   -30711.133 
   46700    33.108536   -35562.474    -30742.54 
   46800    33.048925   -35561.312   -30750.057 
   46900    32.989976   -35558.846   -30756.172 
   47000    32.964963    -35552.55   -30753.517 
   47100    32.978949   -35557.135   -30756.067 
   47200    33.033035   -35538.032    -30729.09 
   47300    33.048697   -35556.927   -30745.705 
   47400    32.998888   -35552.206   -30748.235 
   47500    32.887599   -35581.142   -30793.373 
   47600    33.085648   -35549.886   -30733.284 
   47700    33.007242   -35563.708   -30758.521 
   47800    32.910183    -35588.17   -30797.113 
   47900    32.850168   -35557.143   -30774.823 
   48000     33.02766   -35534.987   -30726.828 
   48100     32.82333    -35553.77   -30775.356 
   48200     33.05898   -35520.935   -30708.216 
   48300     33.00868    -35544.02   -30738.624 
   48400    32.857206   -35533.232   -30749.887 
   48500    32.908885   -35539.542   -30748.674 
   48600    32.965447   -35570.308   -30771.205 
   48700    32.844861   -35572.268    -30790.72 
   48800    33.032739   -35560.775   -30751.876 
   48900    32.913195   -35556.602   -30765.107 
   49000    33.118901   -35534.983   -30713.541 
   49100    32.755985   -35546.655   -30778.046 
   49200     32.98568   -35571.174   -30769.126 
   49300    32.923824   -35551.893    -30758.85 
   49400    33.056316   -35578.212   -30765.881 
   49500    32.884715   -35585.356   -30798.006 
   49600    32.902182   -35545.928   -30756.035 
   49700    32.888603   -35593.513   -30805.598 
   49800    32.857052   -35572.928   -30789.605 
   49900    32.879843   -35576.773   -30790.133 
   50000    33.171374    -35551.26   -30722.178 
   50100     33.24582   -35556.126   -30716.207 
   50200    33.173662   -35552.302   -30722.887 
   50300    32.907625   -35568.547   -30777.862 
   50400    32.810072   -35591.809   -30815.326 
   50500    32.998055   -35578.314   -30774.464 
   50600    33.249453   -35573.364   -30732.916 
   50700    33.261086   -35552.128   -30709.986 
   50800    33.057769   -35597.052    -30784.51 
   50900    32.969955   -35561.163   -30761.404 
   51000    32.942805   -35573.905   -30778.099 
   51100    32.959508   -35526.409   -30728.171 
   51200    32.846757   -35574.131   -30792.307 
   51300    33.023875   -35560.988    -30753.38 
   51400    32.922077   -35545.103   -30752.314 
   51500    32.944631   -35553.861   -30757.789 
   51600    33.282918   -35572.158   -30726.838 
   51700    33.158178   -35530.222   -30703.062 
   51800    32.963723   -35560.099   -30761.248 
   51900    32.904869   -35569.009   -30778.725 
   52000    32.802945   -35544.294   -30768.848 
   52100    33.216258   -35555.333   -30719.717 
   52200    33.097887   -35558.445   -30740.062 
   52300    33.115408   -35592.514   -30771.581 
   52400    33.110473   -35588.957   -30768.741 
   52500    32.857323   -35575.322    -30791.96 
   52600    32.930335   -35611.708   -30817.717 
   52700    33.204894   -35565.754   -30731.793 
   52800    32.817413   -35581.652     -30804.1 
   52900    33.039151   -35563.361   -30753.529 
   53000    32.942514   -35576.113   -30780.349 
   53100    32.890683   -35573.119   -30784.901 
   53200    33.044763   -35569.323   -30758.673 
   53300    32.920781   -35602.951   -30810.351 
   53400    32.931806   -35562.206   -30768.001 
   53500    33.023059   -35559.483   -30751.993 
   53600    32.994527   -35606.028   -30802.692 
   53700    32.896508   -35574.913   -30785.846 
   53800    32.916711    -35611.24   -30819.232 
   53900    32.988579   -35590.873   -30788.403 
   54000    33.202942   -35603.349   -30769.672 
   54100    33.045547    -35596.65   -30785.887 
   54200    32.904783   -35608.548   -30818.277 
   54300    33.127595   -35576.864   -30754.156 
   54400    33.122728   -35616.816   -30794.817 
   54500     32.83184   -35584.025   -30804.373 
   54600    32.930158   -35599.658   -30805.692 
   54700    32.849855   -35561.629   -30779.355 
   54800    32.963474   -35569.039   -30770.224 
   54900    32.959582   -35590.647   -30792.398 
   55000    33.057932   -35588.165   -30775.599 
   55100    32.943987   -35567.013   -30771.034 
   55200    32.932882   -35601.277   -30806.915 
   55300    32.728004   -35561.089   -30796.553 
   55400    32.896686   -35571.643   -30782.551 
   55500    32.943502   -35579.377   -30783.469 
   55600    32.737967   -35609.405   -30843.419 
   55700    33.054961   -35571.882   -30759.748 
   55800    32.848392   -35589.221   -30807.159 
   55900     32.86347   -35604.614   -30820.357 
   56000    33.137166   -35580.017   -30755.915 
   56100    32.979845   -35552.246   -30751.047 
   56200    32.918294   -35583.274   -30791.036 
   56300    33.090672   -35607.092   -30789.759 
   56400    33.085227   -35578.395   -30761.855 
   56500    32.890296   -35581.118   -30792.955 
   56600    33.233872   -35594.963   -30756.783 
   56700    32.977749   -35578.465   -30777.571 
   56800    33.033281   -35606.432   -30797.454 
   56900    32.875243   -35584.473   -30798.502 
   57000    33.006296   -35590.006   -30784.957 
   57100    33.111712   -35611.069   -30790.673 
   57200    33.015735   -35592.878   -30786.455 
   57300    32.963003   -35638.205   -30839.458 
   57400    33.039212   -35610.222   -30800.381 
   57500    33.046461   -35605.289   -30794.392 
   57600    33.069209   -35593.009   -30778.801 
   57700    32.992037   -35610.956   -30807.983 
   57800    33.095947   -35642.421    -30824.32 
   57900    33.195904   -35609.263    -30776.61 
   58000    33.005239   -35553.692   -30748.797 
   58100    32.731328   -35571.161   -30806.142 
   58200    32.992941   -35589.191   -30786.086 
   58300    32.702059   -35581.242   -30820.483 
   58400     33.06492    -35550.92   -30737.336 
   58500    32.686112   -35579.033   -30820.596 
   58600    32.896036    -35561.21   -30772.212 
   58700    32.999573   -35602.263   -30798.193 
   58800    32.979488   -35603.669   -30802.522 
   58900    33.280088    -35582.41   -30737.502 
   59000    32.949686     -35615.3   -30818.492 
   59100    32.836979   -35581.481   -30801.081 
   59200    33.175945   -35578.476   -30748.729 
   59300    33.154217   -35575.541   -30748.957 
   59400    32.923686   -35597.148   -30804.125 
   59500     32.94581    -35584.79   -30788.546 
   59600    33.109574   -35592.994   -30772.909 
   59700    32.961625    -35577.68   -30779.133 
   59800    32.963561   -35602.873   -30804.045 
   59900    32.923363    -35580.45   -30787.474 
   60000    32.900155   -35609.269   -30819.671 
   60100    32.668486   -35626.585   -30870.714 
   60200    33.041888   -35575.882   -30765.651 
   60300    32.950387   -35618.689   -30821.778 
   60400    33.054069   -35601.109   -30789.105 
   60500    32.912857   -35605.568   -30814.121 
   60600    33.219119   -35625.155   -30789.123 
   60700     32.83046   -35627.722    -30848.27 
   60800    33.183775   -35609.348   -30778.461 
   60900    33.180541   -35582.256    -30751.84 
   61000    32.956023   -35598.366   -30800.635 
   61100    32.951181   -35576.151   -30779.126 
   61200    33.341846   -35605.092   -30751.193 
   61300    33.122595   -35582.533   -30760.553 
   61400    32.821652   -35612.308   -30834.139 
   61500    33.132564   -35600.001    -30776.57 
   61600    33.042033   -35601.612    -30791.36 
   61700    33.010793    -35588.93   -30783.226 
   61800    33.010298   -35594.136   -30788.504 
   61900     32.94803   -35627.712   -30831.145 
   62000    32.892343   -35596.413   -30807.953 
   62100    33.073397   -35604.935   -30790.117 
   62200    33.047489   -35599.161   -30788.115 
   62300    33.042676    -35593.97   -30783.624 
   62400    33.079457   -35629.628   -30813.928 
   62500    32.810491    -35590.73   -30814.186 
   62600    33.120592   -35591.895   -30770.206 
   62700    32.837651   -35619.208    -30838.71 
   62800    32.928421   -35654.352    -30860.64 
   62900    32.842912   -35615.108   -30833.844 
   63000    32.972975       -35616   -30815.802 
   63100    32.770254   -35637.121   -30866.435 
   63200    33.225447   -35607.568   -30770.614 
   63300    32.784464   -35631.266   -30858.511 
   63400    33.175131   -35628.113   -30798.484 
   63500    33.123687   -35598.654   -30776.515 
   63600    32.877186   -35594.466   -30808.213 
   63700    32.922192   -35586.352   -30793.546 
   63800    33.134578   -35612.658   -30788.933 
   63900    32.975053   -35620.442   -30819.941 
   64000     32.91475   -35597.728   -30806.006 
   64100    32.997421   -35579.412   -30775.655 
   64200    32.893687   -35611.507   -30822.851 
   64300    32.964257   -35594.692   -30795.763 
   64400    33.071008   -35643.573   -30829.103 
   64500    33.075519   -35585.209   -30770.082 
   64600    33.161948   -35593.486   -30765.777 
   64700    32.942852   -35610.316   -30814.503 
   64800    32.972562   -35610.511   -30810.373 
   64900     33.04765   -35612.033   -30800.963 
   65000    33.050898   -35636.137   -30824.595 
   65100    32.918289   -35611.211   -30818.974 
   65200    33.145405   -35606.983   -30781.683 
   65300    33.003213   -35639.784   -30835.183 
   65400    33.091659   -35632.095   -30814.619 
   65500    32.987811   -35612.064   -30809.706 
   65600    32.888274   -35623.567   -30835.699 
   65700    32.987515   -35602.358   -30800.042 
   65800    33.030278   -35627.116   -30818.575 
   65900    33.199143   -35619.051   -30785.927 
   66000    32.788738   -35590.515   -30817.138 
   66100    33.022071    -35617.45   -30810.104 
   66200    33.027534   -35613.717   -30805.576 
   66300     32.92166   -35609.941   -30817.213 
   66400    33.142955   -35625.932   -30800.988 
   66500    33.148182   -35621.282   -30795.577 
   66600     32.98289   -35628.959   -30827.317 
   66700    32.976466   -35635.849   -30835.143 
   66800    33.094251   -35642.931   -30825.077 
   66900     32.78546   -35623.298   -30850.398 
   67000    33.165277    -35623.19   -30794.997 
   67100    32.927093   -35609.639    -30816.12 
   67200    33.056546   -35666.267   -30853.902 
   67300    33.130027   -35607.373   -30784.311 
   67400    33.185864   -35617.852   -30786.661 
   67500     33.07984   -35637.445   -30821.689 
   67600    32.798051   -35636.552   -30861.819 
   67700    33.027321   -35658.699   -30850.589 
   67800    32.838035   -35588.223   -30807.669 
   67900    32.857033   -35648.508   -30865.189 
   68000    32.984906   -35667.536     -30865.6 
   68100     32.94804   -35646.362   -30849.793 
   68200    33.132052   -35630.138   -30806.782 
   68300    33.043695   -35642.086   -30831.592 
   68400    32.943392   -35630.096   -30834.204 
   68500    33.156557   -35638.358   -30811.434 
   68600    33.072429   -35670.376   -30855.699 
   68700     33.14351    -35664.05   -30839.026 
   68800    33.185751   -35659.734    -30828.56 
   68900    32.908875   -35657.836    -30866.97 
   69000    33.021306   -35658.227   -30850.993 
   69100    33.155608   -35625.296    -30798.51 
   69200    32.786556   -35639.476   -30866.416 
   69300    32.991252   -35652.417   -30849.558 
   69400    33.109194   -35641.307   -30821.277 
   69500    32.850215   -35634.618    -30852.29 
   69600    32.830385   -35643.607   -30864.166 
   69700    32.929391   -35619.923   -30826.069 
   69800    33.167223   -35629.616   -30801.139 
   69900     33.25235   -35628.017   -30787.147 
   70000    33.220203   -35627.556   -30791.366 
   70100    33.185919   -35602.422   -30771.223 
   70200    33.133237   -35619.743   -30796.213 
   70300    32.997672   -35602.142   -30798.348 
   70400    33.044982   -35631.227   -30820.546 
   70500    33.010453   -35602.755     -30797.1 
   70600    33.091693   -35644.426   -30826.945 
   70700    33.092505   -35620.854   -30803.255 
   70800    33.218587   -35647.098   -30811.144 
   70900    32.988849   -35640.905   -30838.396 
   71000    33.159473   -35619.252   -30791.903 
   71100    32.977958   -35640.777   -30839.853 
   71200    32.979047   -35652.248   -30851.165 
   71300    32.939468    -35658.51   -30863.189 
   71400     33.26524   -35604.994   -30762.248 
   71500    33.027071    -35661.24   -30853.166 
   71600    33.044194   -35653.962   -30843.396 
   71700     32.94124   -35660.381   -30864.803 
   71800    33.333093   -35685.818   -30833.194 
   71900    32.967268   -35622.498    -30823.13 
   72000     33.11828   -35620.892    -30799.54 
   72100    32.960984   -35655.266   -30856.813 
   72200    32.960683   -35621.554   -30823.145 
   72300    33.121257   -35648.157   -30826.371 
   72400    33.066155   -35647.851   -30834.087 
   72500     33.10336   -35628.759   -30809.579 
   72600     32.97262   -35637.366   -30837.219 
   72700    33.037778   -35612.284   -30802.652 
   72800    33.300356   -35620.988   -30773.129 
   72900     32.99793   -35637.702    -30833.87 
   73000    33.036705   -35597.612   -30788.135 
   73100    33.062442   -35622.588   -30809.365 
   73200    32.963315    -35614.03   -30815.238 
   73300    32.857444   -35630.097   -30846.718 
   73400    32.928969    -35629.52   -30835.728 
   73500    32.792504   -35595.477   -30821.551 
   73600    32.908799   -35636.563   -30845.708 
   73700    32.945847   -35634.553   -30838.303 
   73800    32.797116    -35646.01   -30871.413 
   73900    33.234497   -35615.167   -30776.897 
   74000    32.783605   -35687.512   -30914.882 
   74100    33.058359   -35653.694   -30841.066 
   74200     32.96586    -35655.78   -30856.618 
   74300    33.015324   -35657.214    -30850.85 
   74400    33.108082   -35627.596   -30807.729 
   74500    33.227646   -35657.341   -30820.068 
   74600    32.982013   -35678.605    -30877.09 
   74700    32.931918   -35676.634   -30882.413 
   74800    33.018249   -35668.507   -30861.717 
   74900    33.093213   -35637.471   -30819.768 
   75000    32.909109   -35643.078   -30852.177 
   75100    32.941791   -35646.461   -30850.802 
   75200    33.137485   -35649.235   -30825.087 
   75300     32.99279   -35675.064   -30871.981 
   75400    33.042199   -35617.874   -30807.598 
   75500    32.959627   -35675.273   -30877.018 
   75600    33.074734   -35624.443    -30809.43 
   75700    32.937951   -35639.212   -30844.112 
   75800    32.940844   -35654.916   -30859.395 
   75900    32.956567   -35622.784   -30824.974 
   76000    33.116999   -35624.171   -30803.006 
   76100    32.920568   -35641.694   -30849.125 
   76200    33.009791   -35659.019   -30853.461 
   76300    32.909638   -35654.443   -30863.465 
   76400    32.808671     -35669.8   -30893.521 
   76500    33.127805   -35638.123   -30815.385 
   76600     32.88557   -35653.082   -30865.607 
   76700    33.033869   -35637.915   -30828.851 
   76800    32.920947   -35661.374   -30868.749 
   76900    32.917016   -35654.698   -30862.646 
   77000     32.98949   -35634.353   -30831.751 
   77100    33.009635   -35634.024   -30828.488 
   77200    33.132256   -35645.536   -30822.149 
   77300     33.03923    -35633.98   -30824.136 
   77400    33.089673   -35630.401   -30813.214 
   77500    33.022675   -35663.698   -30856.265 
   77600    32.946935   -35648.493   -30852.085 
   77700    32.837347   -35653.441   -30872.987 
   77800    32.954164   -35677.977   -30880.517 
   77900    32.843314   -35678.533    -30897.21 
   78000    33.192811    -35660.69   -30828.488 
   78100    33.057075   -35644.818   -30832.376 
   78200    32.942738   -35630.097     -30834.3 
   78300    33.044837    -35655.41    -30844.75 
   78400    33.133377   -35670.649   -30847.099 
   78500    33.003776   -35666.529   -30861.846 
   78600    33.084698   -35651.409   -30834.946 
   78700    33.053019   -35649.869   -30838.018 
   78800    32.962894   -35675.817   -30877.086 
   78900    32.990206   -35661.904   -30859.197 
   79000    32.962056   -35685.872   -30887.263 
   79100      33.0133   -35656.726   -30850.657 
   79200     32.99862   -35673.547   -30869.615 
   79300    32.987449   -35682.961   -30880.655 
   79400    32.828695   -35667.794   -30888.599 
   79500    32.886378   -35685.737   -30898.146 
   79600    32.915263   -35674.184   -30882.387 
   79700    33.065966   -35660.325   -30846.589 
   79800    32.944982   -35707.775   -30911.652 
   79900    32.880379   -35679.676   -30892.958 
   80000    33.199366    -35675.84   -30842.684 
   80100    32.963429   -35683.082   -30884.273 
   80200    32.971274   -35638.601   -30838.651 
   80300    33.002597    -35643.26   -30838.749 
   80400    32.977789   -35658.835   -30857.936 
   80500    32.882421   -35631.317   -30844.302 
   80600    33.111837   -35614.827   -30794.413 
   80700    33.055386   -35633.424   -30821.228 
   80800    32.890551   -35669.495   -30881.295 
   80900    33.131834   -35647.894   -30824.569 
   81000    32.950663   -35674.259   -30877.308 
   81100    32.943122   -35661.761   -30865.908 
   81200     32.99976   -35678.482   -30874.384 
   81300    33.032746   -35721.029   -30912.129 
   81400    32.966006   -35696.755   -30897.571 
   81500    33.180033    -35683.74   -30853.398 
   81600    33.092785    -35669.65   -30852.009 
   81700    32.922123   -35642.231   -30849.435 
   81800    33.030064   -35685.479    -30876.97 
   81900    33.032537   -35662.452   -30853.582 
   82000    33.085923   -35644.111    -30827.47 
   82100    33.065036   -35641.892   -30828.291 
   82200    32.756735   -35676.176   -30907.457 
   82300    33.135618   -35678.194   -30854.318 
   82400    33.132087   -35661.748   -30838.386 
   82500    32.941051   -35681.293   -30885.742 
   82600     33.06822   -35676.038   -30861.974 
   82700    33.018699   -35654.102   -30847.247 
   82800    32.964974   -35668.477   -30869.444 
   82900    33.024864   -35677.646   -30869.894 
   83000    32.948575   -35657.367   -30860.721 
   83100    33.146152   -35638.672   -30813.262 
   83200    33.049304   -35692.725   -30881.414 
   83300    32.825033   -35646.878   -30868.217 
   83400    32.936797   -35675.587   -30880.655 
   83500    32.960232   -35679.698   -30881.355 
   83600    33.109263   -35651.228   -30831.189 
   83700    33.149871   -35704.653   -30878.702 
   83800    33.028635   -35661.002     -30852.7 
   83900    33.104501   -35711.841   -30892.495 
   84000     33.08941   -35695.895   -30878.746 
   84100    33.085714   -35689.836   -30873.225 
   84200    32.900054   -35730.194   -30940.611 
   84300    32.908369    -35711.32   -30920.527 
   84400    33.034359   -35705.594   -30896.459 
   84500    32.888806   -35700.867   -30912.921 
   84600    32.936165    -35676.96   -30882.121 
   84700    33.114305   -35720.933   -30900.159 
   84800    32.858712   -35683.709   -30900.145 
   84900    33.044564   -35718.627   -30908.007 
   85000    33.102382   -35704.337     -30885.3 
   85100     32.80615   -35683.013   -30907.101 
   85200    33.031402    -35730.56   -30921.855 
   85300    32.985022   -35696.582   -30894.629 
   85400    33.001405    -35695.77   -30891.433 
   85500    32.953908   -35686.761   -30889.339 
   85600    32.857427   -35717.553   -30934.176 
   85700    32.875496   -35711.827    -30925.82 
   85800    33.150356   -35703.357   -30877.336 
   85900    33.094116   -35682.641   -30864.806 
   86000    33.157117    -35659.31   -30832.304 
   86100     33.11198    -35688.89   -30868.455 
   86200     32.95384   -35702.647   -30905.235 
   86300    33.011873   -35684.241   -30878.379 
   86400     33.04863   -35697.778   -30886.566 
   86500      33.0142   -35674.551   -30868.351 
   86600    32.999281   -35673.512   -30869.484 
   86700    33.040454    -35698.57   -30888.547 
   86800    33.203706   -35733.092   -30899.304 
   86900    32.976785   -35712.702   -30911.949 
   87000    33.052713   -35708.596   -30896.789 
   87100     33.09583   -35697.386   -30879.302 
   87200    33.179856   -35712.092   -30881.776 
   87300    33.102679   -35712.157   -30893.076 
   87400    32.868978   -35693.461   -30908.402 
   87500    33.065005   -35736.106    -30922.51 
   87600    33.107286   -35717.465   -30897.714 
   87700    32.872923   -35724.138   -30938.505 
   87800    33.014041   -35710.741   -30904.564 
   87900    32.941671   -35706.691    -30911.05 
   88000    32.841487   -35727.851   -30946.795 
   88100    33.041417   -35681.323   -30871.161 
   88200    33.105283   -35677.012   -30857.552 
   88300    32.948611    -35675.02   -30878.368 
   88400    33.157901    -35706.12       -30879 
   88500    32.987766   -35653.025   -30850.673 
   88600    32.900514   -35692.878   -30903.229 
   88700    32.851671   -35702.107   -30919.568 
   88800    33.204983   -35725.667   -30891.693 
   88900    32.950545   -35670.948   -30874.014 
   89000    32.749233   -35675.841   -30908.215 
   89100     32.78371   -35747.428   -30974.783 
   89200     33.05238   -35707.823   -30896.065 
   89300    33.058629   -35738.053   -30925.385 
   89400    32.971202   -35712.588   -30912.647 
   89500    33.042501   -35746.222   -30935.902 
   89600     33.29927   -35740.987   -30893.286 
   89700    33.089666   -35737.823   -30920.637 
   89800    32.859912   -35716.245   -30932.506 
   89900     32.76439   -35728.254   -30958.422 
   90000    32.944413   -35720.246   -30924.205 
   90100    33.027903   -35730.948   -30922.753 
   90200    32.984371    -35731.93   -30930.073 
   90300    32.939787   -35704.681   -30909.314 
   90400    33.056093   -35733.093   -30920.794 
   90500    32.862489   -35717.933   -30933.819 
   90600    33.283636   -35691.206   -30845.781 
   90700    32.883686   -35705.472   -30918.272 
   90800     33.01641   -35715.392    -30908.87 
   90900    33.124249   -35710.185   -30887.964 
   91000    33.083347   -35677.697    -30861.43 
   91100    33.188639   -35719.239   -30887.644 
   91200    32.812447   -35698.752   -30921.924 
   91300    33.198893   -35676.142   -30843.054 
   91400    33.084717   -35709.787   -30893.321 
   91500    32.856658   -35679.077   -30895.812 
   91600    33.134618   -35716.221    -30892.49 
   91700    32.971874    -35684.45   -30884.412 
   91800     33.10093   -35708.794   -30889.967 
   91900     32.95433   -35689.793   -30892.309 
   92000    32.969804   -35662.833   -30863.096 
   92100    33.034992   -35715.254   -30906.027 
   92200    32.969902   -35723.362   -30923.611 
   92300    33.100025    -35711.66   -30892.966 
   92400    33.154962   -35701.353    -30874.66 
   92500    32.846731    -35737.72     -30955.9 
   92600    32.843729   -35695.451   -30914.068 
   92700    32.996512   -35702.353   -30898.728 
   92800    33.033537   -35689.374   -30880.359 
   92900    32.981003   -35693.497    -30892.13 
   93000    33.089464   -35719.071   -30901.914 
   93100     32.89413   -35718.833   -30930.112 
   93200     32.95684   -35693.104   -30895.254 
   93300    32.976628   -35695.561   -30894.831 
   93400     32.94512   -35702.591   -30906.448 
   93500    33.022129   -35676.807   -30869.453 
   93600    32.827751   -35652.471   -30873.414 
   93700    32.838917   -35690.742    -30910.06 
   93800    32.999852   -35701.063   -30896.951 
   93900     33.14866   -35698.337   -30872.562 
   94000    33.102451    -35683.49   -30864.443 
   94100    32.973806    -35719.98   -30919.661 
   94200    33.051286   -35689.669    -30878.07 
   94300    32.935158   -35708.381   -30913.688 
   94400     33.04419   -35730.501   -30919.935 
   94500    32.893916    -35695.97   -30907.281 
   94600    32.960748   -35716.086   -30917.668 
   94700    32.879969   -35704.344   -30917.685 
   94800    32.916971   -35687.281   -30895.235 
   94900     33.04133   -35678.604   -30868.454 
   95000    33.131946   -35655.928   -30832.587 
   95100    33.109162   -35674.742   -30854.718 
   95200    32.945446   -35733.789   -30937.598 
   95300    33.064645   -35704.667   -30891.123 
   95400      33.1202   -35696.679   -30875.047 
   95500    33.046352   -35708.957   -30898.076 
   95600     32.91653   -35718.884   -30926.903 
   95700    32.912313   -35715.634   -30924.267 
   95800     32.85534   -35704.515   -30921.442 
   95900    33.243181   -35709.645    -30870.11 
   96000    33.112934   -35735.803   -30915.229 
   96100    33.025985   -35704.819   -30896.903 
   96200    32.828809   -35724.068   -30944.857 
   96300    33.265548   -35690.684   -30847.893 
   96400    33.037297   -35702.296   -30892.733 
   96500    33.039673    -35687.79   -30877.882 
   96600    32.996473   -35689.028   -30885.409 
   96700    32.857428    -35693.63   -30910.253 
   96800     33.08895    -35705.03   -30887.948 
   96900    32.925673   -35675.996   -30882.684 
   97000    33.112673   -35726.544   -30906.009 
   97100    32.969871   -35702.883   -30903.137 
   97200    32.978061   -35726.686   -30925.747 
   97300    32.830668   -35742.132   -30962.651 
   97400    33.130892   -35739.516   -30916.328 
   97500    33.054543   -35717.826   -30905.753 
   97600     32.92366   -35741.888   -30948.868 
   97700     32.87522   -35736.619   -30950.652 
   97800    32.975344   -35737.288   -30936.744 
   97900    33.002157   -35722.622   -30918.175 
   98000    33.077772     -35741.4   -30925.945 
   98100    32.719296   -35756.851   -30993.583 
   98200    33.011342   -35739.325   -30933.541 
   98300    33.087217   -35731.312   -30914.482 
   98400    32.970483    -35743.21   -30943.375 
   98500    33.053849   -35716.461   -30904.489 
   98600    33.086762   -35704.549   -30887.785 
   98700    32.871245   -35735.614   -30950.225 
   98800     33.10425   -35745.421   -30926.111 
   98900    32.771701   -35744.299   -30973.402 
   99000    32.759928   -35719.443    -30950.26 
   99100    32.985507   -35745.029   -30943.006 
   99200     33.11299   -35715.216   -30894.635 
   99300    32.883621   -35728.849   -30941.658 
   99400    33.088098   -35748.793   -30931.835 
   99500    32.851365   -35697.566   -30915.071 
   99600    33.035873   -35721.839   -30912.484 
   99700    32.958158   -35731.715   -30933.673 
   99800    33.003007   -35713.059   -30908.488 
   99900    32.900475   -35685.342   -30895.698 
  100000    33.032765   -35704.549   -30895.646 
  100100    33.062192   -35685.326   -30872.139 
  100200    33.048468   -35706.164   -30894.975 
  100300    33.087058   -35739.826   -30923.019 
  100400    32.946639   -35719.427   -30923.062 
  100500    32.975038   -35741.836   -30941.337 
  100600    32.882378   -35704.775   -30917.766 
  100700    33.118587   -35701.386    -30879.99 
  100800    33.158307    -35740.97    -30913.79 
  100900    33.172875   -35711.705   -30882.405 
  101000    33.104349   -35726.752   -30907.428 
  101100    32.943707   -35742.769   -30946.831 
  101200    32.908909   -35722.531   -30931.659 
  101300     32.89703   -35700.158   -30911.016 
  101400    32.942635   -35722.426   -30926.644 
  101500    32.889164   -35714.403   -30926.405 
  101600    33.056062   -35691.605   -30879.311 
  101700    33.229866   -35711.449   -30873.852 
  101800     33.14596   -35713.574   -30888.192 
  101900    32.940402   -35742.335   -30946.879 
  102000    32.772146   -35748.382    -30977.42 
  102100     32.96627   -35724.934   -30925.711 
  102200    32.941592   -35724.404   -30928.774 
  102300    32.844743   -35732.616   -30951.085 
  102400    32.793007   -35743.634   -30969.635 
  102500    32.895309   -35699.318   -30910.426 
  102600     33.10624   -35740.305   -30920.706 
  102700    33.073042   -35732.442   -30917.676 
  102800    32.892235   -35695.887   -30907.443 
  102900    33.083365   -35732.498   -30916.229 
  103000    32.941539   -35737.808   -30942.185 
  103100     32.88913   -35715.299   -30927.307 
  103200    33.077673   -35737.457   -30922.016 
  103300    33.252833   -35744.784   -30903.844 
  103400     33.04657   -35700.106   -30889.193 
  103500    33.058799   -35735.551   -30922.858 
  103600    33.063312   -35708.732   -30895.382 
  103700    33.041514   -35711.952   -30901.776 
  103800     32.92285   -35692.284   -30899.382 
  103900    32.826352   -35721.177   -30942.324 
  104000    32.949013   -35698.426   -30901.716 
  104100    33.225835   -35723.715   -30886.705 
  104200    33.073389   -35750.448   -30935.631 
  104300    32.978218   -35702.776   -30901.814 
  104400    33.084563   -35710.808   -30894.364 
  104500    33.107193   -35698.508    -30878.77 
  104600    32.937283   -35704.743   -30909.741 
  104700    32.910583   -35686.571   -30895.456 
  104800    33.181031   -35725.756   -30895.269 
  104900    33.101606   -35739.113   -30920.188 
  105000    32.927424   -35724.065   -30930.498 
  105100    33.019019   -35720.192   -30913.291 
  105200    32.936911   -35722.267   -30927.318 
  105300    32.948342   -35721.687   -30925.075 
  105400    32.952686   -35727.237   -30929.993 
  105500    32.871924   -35749.617   -30964.129 
  105600    33.074316   -35749.268   -30934.316 
  105700    33.115405   -35751.805   -30930.872 
  105800    32.997231   -35733.674   -30929.944 
  105900    33.273401   -35729.923   -30885.989 
  106000    33.056241   -35719.227   -30906.907 
  106100    33.146245   -35776.926   -30951.502 
  106200    32.986808   -35741.298   -30939.086 
  106300    33.183588   -35712.723   -30881.864 
  106400    32.943424   -35732.928   -30937.032 
  106500    32.902085   -35729.482   -30939.604 
  106600    33.049331   -35758.617   -30947.302 
  106700    32.826905   -35719.949   -30941.016 
  106800     32.99404   -35720.375    -30917.11 
  106900    33.090208    -35711.96   -30894.694 
  107000    33.263481    -35697.19     -30854.7 
  107100    32.927686   -35741.759   -30948.154 
  107200    32.972498   -35704.061   -30903.932 
  107300    32.897517    -35740.36   -30951.146 
  107400    32.931459    -35724.91   -30930.756 
  107500    33.045705   -35697.027   -30886.241 
  107600    32.983454    -35703.29   -30901.566 
  107700     33.19725   -35717.543   -30884.695 
  107800    33.065239   -35730.913   -30917.283 
  107900    33.214766   -35723.666   -30888.268 
  108000    32.971115    -35748.65   -30948.722 
  108100    32.968426   -35726.344   -30926.808 
  108200    32.891762   -35719.817   -30931.441 
  108300    33.184745   -35711.357   -30880.329 
  108400    33.224122   -35749.571   -30912.811 
  108500    33.003543    -35753.13   -30948.481 
  108600    32.957171   -35737.144   -30939.247 
  108700    33.133144   -35736.928   -30913.412 
  108800    33.250126   -35743.573   -30903.026 
  108900    32.991328   -35753.691    -30950.82 
  109000    32.871111   -35745.953   -30960.584 
  109100    32.966152   -35711.971   -30912.766 
  109200    32.928901   -35762.161   -30968.379 
  109300     32.89323   -35749.018   -30960.429 
  109400    32.978746   -35756.626   -30955.587 
  109500    33.001945    -35745.63   -30941.214 
  109600    33.055171   -35724.821   -30912.657 
  109700    33.062503   -35759.352    -30946.12 
  109800     32.99888   -35746.041   -30942.071 
  109900    33.041437   -35737.166   -30927.001 
  110000    33.075295   -35745.016   -30929.921 
  110100    32.958358   -35721.163   -30923.093 
  110200    33.087833   -35764.593   -30947.673 
  110300    33.075942   -35744.427   -30929.239 
  110400    33.245048   -35723.503   -30883.696 
  110500    33.067851   -35733.755   -30919.744 
  110600    32.830635   -35743.198   -30963.721 
  110700    32.952844   -35731.754   -30934.486 
  110800    32.794612   -35725.251   -30951.019 
  110900    32.932107   -35736.737   -30942.488 
  111000    32.913598   -35730.958   -30939.403 
  111100    33.164719   -35723.165   -30895.052 
  111200    33.034106   -35740.974   -30931.876 
  111300    33.025855   -35744.888   -30936.991 
  111400    32.981903   -35764.529   -30963.031 
  111500    33.085083   -35742.976   -30926.457 
  111600     32.98353   -35741.411   -30939.675 
  111700    32.889153   -35775.028   -30987.032 
  111800    33.105194   -35732.714   -30913.267 
  111900     32.92158    -35798.38   -31005.663 
  112000    33.118733    -35749.01   -30927.592 
  112100    33.058264   -35781.174   -30968.559 
  112200     33.06912     -35739.3   -30925.105 
  112300     32.88758   -35757.749   -30969.982 
  112400    32.979986   -35750.217   -30948.997 
  112500    33.103059   -35757.952   -30938.816 
  112600    33.034165   -35790.501   -30981.394 
  112700    33.096597   -35785.593   -30967.398 
  112800    32.852438   -35778.248   -30995.598 
  112900    32.830118   -35745.306   -30965.904 
  113000    33.103052   -35767.198   -30948.063 
  113100    33.098858   -35774.602   -30956.078 
  113200    32.895025   -35737.993   -30949.142 
  113300    33.039965    -35779.82   -30969.869 
  113400    33.012415   -35742.287   -30936.346 
  113500    33.112641   -35748.594   -30928.063 
  113600    32.931115   -35753.734   -30959.629 
  113700    32.982029   -35740.605   -30939.088 
  113800     33.07706   -35734.363   -30919.012 
  113900    33.242163   -35715.847    -30876.46 
  114000    32.849501   -35726.405   -30944.182 
  114100    32.939591   -35733.311   -30937.972 
  114200    32.825249   -35747.928   -30969.235 
  114300    33.028885   -35719.153   -30910.816 
  114400    32.923145   -35733.873   -30940.928 
  114500     32.90889   -35770.207   -30979.338 
  114600    32.953323   -35778.517   -30981.179 
  114700    33.093555   -35745.233   -30927.481 
  114800    33.108492   -35765.261   -30945.334 
  114900    33.205605   -35734.925    -30900.86 
  115000    32.916866   -35698.729   -30906.699 
  115100    32.959145   -35755.069   -30956.884 
  115200    33.330924   -35760.643   -30908.334 
  115300    33.007347   -35741.891   -30936.689 
  115400    33.093177   -35758.639   -30940.941 
  115500    32.920327   -35746.477   -30953.943 
  115600    33.134113   -35762.367    -30938.71 
  115700    32.993498   -35779.551   -30976.365 
  115800    33.078371   -35760.232    -30944.69 
  115900    32.940344   -35746.237   -30950.789 
  116000    32.712025    -35756.82   -30994.611 
  116100    33.224497   -35758.999   -30922.184 
  116200    33.297036    -35764.11   -30916.735 
  116300    33.075221     -35774.7   -30959.616 
  116400    33.081998   -35802.315   -30986.245 
  116500    32.847137   -35773.562   -30991.683 
  116600    32.905525   -35759.274   -30968.894 
  116700    33.028412   -35772.301   -30964.032 
  116800    33.268321   -35759.013   -30915.818 
  116900    32.995345   -35745.485   -30942.029 
  117000    33.363179   -35753.631   -30896.627 
  117100    33.103218   -35766.566   -30947.406 
  117200    32.962609   -35761.364   -30962.675 
  117300    32.877386   -35736.315   -30950.033 
  117400    33.003202   -35759.749    -30955.15 
  117500    32.889394   -35789.404   -31001.373 
  117600    33.130201   -35760.821   -30937.734 
  117700    32.929925   -35780.596   -30986.665 
  117800    32.948312   -35754.777   -30958.169 
  117900    32.953549   -35788.307   -30990.937 
  118000    33.229915   -35774.452   -30936.848 
  118100    33.078247    -35772.98   -30957.456 
  118200    33.008489   -35761.286   -30955.918 
  118300    33.018071   -35751.504    -30944.74 
  118400    32.826441   -35788.722   -31009.856 
  118500    33.254749   -35771.456   -30930.237 
  118600    33.046988   -35742.593    -30931.62 
  118700    32.915747   -35768.993   -30977.125 
  118800    32.977225   -35775.843   -30975.026 
  118900    33.064337   -35703.833   -30890.334 
  119000     33.20325    -35750.44   -30916.718 
  119100    33.001087   -35725.672   -30921.381 
  119200    32.903386   -35721.557   -30931.489 
  119300    33.083549   -35740.423   -30924.127 
  119400    32.877112   -35769.608   -30983.365 
  119500    32.915018   -35708.257   -30916.496 
  119600    32.960654   -35762.877   -30964.472 
  119700    32.917799   -35723.009   -30930.843 
  119800    33.124766   -35745.966    -30923.67 
  119900    32.876608   -35735.246   -30949.077 
  120000    33.084407     -35760.7   -30944.279 
  120100     33.01849   -35760.982   -30954.157 
  120200     32.87917   -35740.102    -30953.56 
  120300     33.05101   -35777.882   -30966.323 
  120400    33.022876   -35765.885   -30958.422 
  120500    33.076204   -35778.713   -30963.487 
  120600    32.810514   -35747.351   -30970.804 
  120700    33.137689   -35759.383   -30935.205 
  120800     33.08973   -35764.713   -30947.517 
  120900     33.08614   -35787.536   -30970.863 
  121000    33.204899   -35793.033   -30959.071 
  121100     33.30877   -35780.289   -30931.206 
  121200    33.291617   -35781.866    -30935.28 
  121300    33.080804   -35802.941   -30987.045 
  121400    32.793872   -35790.353   -31016.228 
  121500     32.93876   -35770.213   -30974.995 
  121600      33.1009   -35772.936   -30954.114 
  121700    33.131189   -35784.779   -30961.547 
  121800    33.105549   -35765.944   -30946.445 
  121900    33.056066   -35763.805    -30951.51 
  122000    33.042882   -35774.545   -30964.169 
  122100    33.046181   -35771.112   -30960.256 
  122200    32.765407   -35750.258   -30980.277 
  122300    33.187381   -35737.671   -30906.259 
  122400    32.968472   -35745.264   -30945.721 
  122500    33.047334   -35768.008   -30956.984 
  122600    33.061876   -35751.182   -30938.041 
  122700    32.929094   -35735.834   -30942.023 
  122800    32.965768   -35737.641   -30938.491 
  122900    32.935786   -35736.867   -30942.082 
  123000    33.069219    -35742.09    -30927.88 
  123100    32.967496   -35763.586   -30964.185 
  123200    32.889582    -35742.45   -30954.392 
  123300    33.249449   -35725.583   -30885.135 
  123400    32.919287   -35763.632    -30971.25 
  123500    32.776799    -35764.68   -30993.041 
  123600    32.945184   -35767.653     -30971.5 
  123700    32.929096   -35758.274   -30964.464 
  123800    33.131155   -35767.392   -30944.165 
  123900     33.02102   -35767.761   -30960.568 
  124000    32.962388   -35799.002   -31000.345 
  124100    32.857943   -35807.181   -31023.729 
  124200    32.766071   -35724.806   -30954.729 
  124300    33.108037   -35805.859   -30985.998 
  124400     32.95502   -35794.933   -30997.348 
  124500    32.976525   -35766.968   -30966.253 
  124600    32.970244   -35775.355   -30975.554 
  124700    33.091161   -35746.735   -30929.331 
  124800    32.976251   -35747.977   -30947.302 
  124900      33.0011    -35748.79   -30944.497 
  125000    32.907176   -35724.439   -30933.819 
  125100    32.784684   -35735.603   -30962.816 
  125200    32.940673   -35739.453   -30943.956 
  125300    32.893462   -35743.718   -30955.095 
  125400    33.125849   -35717.033    -30894.58 
  125500    32.885885   -35740.343   -30952.823 
  125600    32.712217   -35759.374   -30997.137 
  125700    33.103777   -35774.553   -30955.313 
  125800    33.091241   -35778.098   -30960.682 
  125900    32.865102   -35779.126   -30994.632 
  126000    32.877312   -35745.834   -30959.562 
  126100    33.095438    -35758.76   -30940.733 
  126200    33.192566   -35735.226    -30903.06 
  126300    33.045802   -35767.069   -30956.269 
  126400    32.693297   -35762.345   -31002.862 
  126500    33.223675   -35785.264   -30948.569 
  126600    33.131783   -35794.601   -30971.283 
  126700    33.052741   -35786.785   -30974.974 
  126800    32.933389   -35777.003   -30982.567 
  126900    33.100454   -35790.467    -30971.71 
  127000    32.645857   -35798.187    -31045.61 
  127100    33.038348   -35776.141   -30966.426 
  127200     33.10677   -35798.219   -30978.543 
  127300    33.154312   -35791.323   -30964.726 
  127400    33.137411   -35832.874   -31008.736 
  127500    33.134389   -35776.961   -30953.264 
  127600    33.100144   -35796.033   -30977.321 
  127700    32.908341   -35799.592   -31008.803 
  127800     32.87624   -35785.345   -30999.229 
  127900    33.040392   -35740.591   -30930.578 
  128000    33.097976   -35761.167   -30942.771 
  128100    32.847356   -35757.759   -30975.848 
  128200     33.03991   -35794.056   -30984.114 
  128300    33.152488   -35795.561   -30969.229 
  128400    32.946334   -35741.898   -30945.577 
  128500    33.112504   -35778.792   -30958.281 
  128600    33.080611   -35777.904   -30962.036 
  128700    33.022859   -35771.719   -30964.258 
  128800     32.98438   -35765.321   -30963.463 
  128900    32.941427   -35757.841   -30962.236 
  129000    33.008554   -35746.391   -30941.013 
  129100    33.024344   -35747.922   -30940.245 
  129200    33.060735   -35748.641   -30935.667 
  129300    32.741852   -35791.834   -31025.282 
  129400     32.86658    -35774.74    -30990.03 
  129500    32.846392   -35806.789   -31025.019 
  129600    32.883229    -35766.52   -30979.387 
  129700    32.988437   -35800.929   -30998.479 
  129800    33.132775   -35762.553   -30939.091 
  129900    33.036424   -35799.648   -30990.212 
  130000    32.778701   -35780.475   -31008.559 
  130100    33.123803   -35737.517   -30915.361 
  130200     32.98626   -35756.225   -30954.093 
  130300    33.013773   -35780.704   -30974.566 
  130400    32.891498   -35771.851   -30983.514 
  130500    33.183821   -35756.502   -30925.608 
  130600    32.890417   -35785.601   -30997.421 
  130700    32.874328   -35788.575   -31002.738 
  130800    33.148294   -35795.991    -30970.27 
  130900    33.140111   -35774.176   -30949.645 
  131000    32.794837   -35794.856   -31020.591 
  131100    32.691028   -35806.289   -31047.136 
  131200    32.944255   -35772.265   -30976.248 
  131300    32.937749   -35811.978   -31016.908 
  131400    33.045132   -35743.634   -30932.931 
  131500    33.004144   -35750.511   -30945.775 
  131600    33.124338   -35765.829   -30943.595 
  131700    33.006978   -35768.933   -30963.784 
  131800    32.975322   -35776.108   -30975.567 
  131900    32.933309    -35794.97   -31000.546 
  132000    32.920891   -35784.735   -30992.119 
  132100    33.045011   -35791.657   -30980.971 
  132200    33.103291    -35761.29    -30942.12 
  132300    33.121419   -35766.979    -30945.17 
  132400    32.931387   -35800.943   -31006.798 
  132500     33.13527   -35818.682   -30994.857 
  132600    33.018592   -35791.823   -30984.983 
  132700    32.935642   -35790.029   -30995.265 
  132800     33.16924   -35794.989   -30966.219 
  132900    33.062318   -35804.445    -30991.24 
  133000     33.06101   -35827.493   -31014.479 
  133100    32.920875   -35797.881   -31005.267 
  133200    33.003868   -35779.398   -30974.703 
  133300     32.82354   -35772.853    -30994.41 
  133400    33.071572   -35761.058   -30946.506 
  133500    32.927347   -35744.193   -30950.637 
  133600    32.811651   -35763.198   -30986.485 
  133700    32.984341   -35763.537   -30961.683 
  133800    33.052251   -35758.176   -30946.437 
  133900    33.025105   -35790.395   -30982.607 
  134000    32.983076   -35761.801   -30960.132 
  134100    32.949657   -35813.194    -31016.39 
  134200    33.047892   -35756.937   -30945.832 
  134300    33.069889   -35773.211   -30958.904 
  134400    32.946018   -35778.476   -30982.202 
  134500    32.945134    -35800.88   -31004.734 
  134600    32.953054   -35792.256   -30994.958 
  134700    33.098178   -35815.621   -30997.195 
  134800    33.153823   -35804.178   -30977.651 
  134900    33.067057   -35795.789   -30981.894 
  135000     33.03187   -35828.707   -31019.935 
  135100    33.005882   -35799.958   -30994.969 
  135200    32.843961   -35765.107   -30983.691 
  135300    32.842524   -35802.591   -31021.384 
  135400    33.140884   -35828.569   -31003.926 
  135500    33.008825   -35803.906   -30998.488 
  135600    33.215722   -35793.992   -30958.455 
  135700    32.981379   -35818.666   -31017.244 
  135800     33.00661   -35827.012   -31021.917 
  135900    33.106741   -35792.553   -30972.881 
  136000    33.152725   -35755.631   -30929.265 
  136100    33.108391   -35799.474   -30979.562 
  136200    33.148401   -35824.442   -30998.706 
  136300    32.981647   -35764.832   -30963.371 
  136400    33.150911   -35802.985   -30976.883 
  136500    33.256615    -35822.06   -30980.569 
  136600    32.755808   -35777.726   -31009.143 
  136700    33.072352   -35787.381   -30972.715 
  136800    33.113487   -35762.683   -30942.028 
  136900    32.901712   -35769.917   -30980.093 
  137000    32.964375   -35775.019   -30976.073 
  137100    33.164449   -35778.783   -30950.709 
  137200    32.924333    -35779.63   -30986.513 
  137300    32.827428   -35778.599   -30999.589 
  137400    32.989688   -35813.237   -31010.605 
  137500    33.000367   -35821.366    -31017.18 
  137600    33.042912    -35790.59    -30980.21 
  137700    32.992837   -35787.924   -30984.834 
  137800    33.013132    -35781.76   -30975.715 
  137900     33.17973   -35781.375   -30951.077 
  138000    33.170847   -35791.221   -30962.216 
  138100    32.819756   -35789.603    -31011.71 
  138200    33.162623   -35799.942   -30972.135 
  138300    32.983181   -35795.122   -30993.438 
  138400    32.733716   -35798.985   -31033.618 
  138500    32.961386   -35760.546   -30962.035 
  138600    33.028613   -35786.346   -30978.048 
  138700    32.843258   -35798.023   -31016.708 
  138800    32.892494   -35791.367   -31002.885 
  138900    32.910203   -35819.105   -31028.045 
  139000    32.993445   -35812.191   -31009.012 
  139100    32.889032   -35827.072   -31039.094 
  139200    32.926809   -35818.557   -31025.079 
  139300     33.03429    -35802.42   -30993.295 
  139400    32.859738   -35820.136   -31036.423 
  139500    32.989882   -35817.114   -31014.454 
  139600    32.962185   -35788.339   -30989.711 
  139700    33.042035   -35831.201   -31020.949 
  139800    33.083134   -35804.985    -30988.75 
  139900     32.92189   -35830.846   -31038.085 
  140000    32.842096   -35813.428   -31032.283 
  140100    32.997592   -35838.921   -31035.139 
  140200    33.047077   -35806.044   -30995.058 
  140300    33.099706   -35791.706   -30973.058 
  140400    32.861569   -35824.229   -31040.249 
  140500    33.002154    -35786.88   -30982.433 
  140600    32.895584   -35819.169   -31030.237 
  140700    32.949712    -35783.81   -30986.998 
  140800    33.077928   -35811.813   -30996.336 
  140900    33.008097   -35787.087   -30981.775 
  141000    32.779403   -35822.354   -31050.336 
  141100    33.006553   -35779.491   -30974.404 
  141200    32.958062   -35811.972   -31013.944 
  141300    33.050886   -35791.124   -30979.583 
  141400    32.887082   -35798.792   -31011.098 
  141500    32.924128   -35810.006   -31016.918 
  141600    33.080509   -35793.682   -30977.828 
  141700    33.048185   -35794.632   -30983.485 
  141800    33.109943   -35794.464   -30974.325 
  141900    32.901186   -35819.667   -31029.919 
  142000    32.991561   -35801.506   -30998.602 
  142100    32.843696   -35805.008    -31023.63 
  142200    33.124783   -35808.368    -30986.07 
  142300    32.985885   -35799.751   -30997.673 
  142400    32.916512   -35806.407   -31014.428 
  142500    33.192012   -35818.436    -30986.35 
  142600    33.216234   -35786.891   -30951.279 
  142700    33.011978   -35814.099   -31008.223 
  142800    32.825819   -35811.072   -31032.296 
  142900    33.004852   -35790.092   -30985.252 
  143000    33.085485   -35810.014   -30993.436 
  143100    33.116387   -35821.219   -31000.142 
  143200    33.026016   -35790.458   -30982.538 
  143300    33.091495   -35809.066   -30991.613 
  143400    32.981755   -35811.067    -31009.59 
  143500    32.995799   -35756.961    -30953.44 
  143600    32.896032   -35796.715   -31007.718 
  143700    32.939372   -35763.479   -30968.172 
  143800    32.987631   -35808.849   -31006.517 
  143900    32.716158   -35807.535   -31044.724 
  144000    32.768248   -35800.265    -31029.87 
  144100    33.198466   -35767.772   -30934.747 
  144200    33.101458   -35807.844   -30988.941 
  144300    33.129948   -35818.556   -30995.505 
  144400    32.943707   -35800.299   -31004.362 
  144500    32.930273   -35789.998   -30996.016 
  144600    32.814307   -35782.004   -31004.905 
  144700    33.356918   -35828.369   -30972.277 
  144800    32.913641   -35828.471   -31036.911 
  144900    32.934739   -35830.982    -31036.35 
  145000    33.078948   -35796.545   -30980.919 
  145100    32.934193   -35807.485   -31012.932 
  145200    33.001976   -35792.516   -30988.096 
  145300    33.035455   -35777.521   -30968.227 
  145400    32.955787   -35816.662   -31018.966 
  145500    32.949745   -35804.553   -31007.736 
  145600    32.933581   -35806.235   -31011.771 
  145700    32.874978   -35809.287   -31023.355 
  145800    33.048471   -35838.086   -31026.897 
  145900    32.879454   -35792.184   -31005.601 
  146000    33.036236   -35840.902   -31031.494 
  146100    32.930996    -35801.25   -31007.162 
  146200     32.99571   -35811.022   -31007.514 
  146300    33.082941    -35790.57   -30974.362 
  146400    33.030001   -35780.818   -30972.317 
  146500    32.969135   -35818.865   -31019.226 
  146600    33.098731   -35775.791   -30957.285 
  146700    33.016976   -35814.732   -31008.128 
  146800    33.008761   -35769.047   -30963.639 
  146900    32.737134   -35825.534   -31059.669 
  147000     33.25703   -35800.427   -30958.876 
  147100    33.180501   -35773.918   -30943.508 
  147200    33.053243   -35803.831   -30991.947 
  147300    32.911123   -35787.749   -30996.555 
  147400       33.161   -35799.731    -30972.16 
  147500    32.997487   -35816.408   -31012.641 
  147600    33.019074    -35798.67    -30991.76 
  147700    32.844288   -35799.033   -31017.569 
  147800    33.271289   -35804.322   -30960.695 
  147900    33.021868   -35797.348   -30990.031 
  148000    33.049372   -35766.724   -30955.403 
  148100    33.020589   -35805.928   -30998.797 
  148200    33.031891   -35801.668   -30992.893 
  148300    32.783888    -35792.99   -31020.319 
  148400    32.897288   -35808.434   -31019.254 
  148500    32.978751   -35797.379    -30996.34 
  148600    32.987985   -35803.341   -31000.958 
  148700    32.946083     -35796.8   -31000.516 
  148800    33.145137   -35831.525   -31006.263 
  148900    33.179727   -35831.033   -31000.736 
  149000    33.006428   -35843.585   -31038.516 
  149100    32.828164   -35828.953   -31049.836 
  149200    33.098482   -35814.511   -30996.041 
  149300    33.048673     -35788.5   -30977.282 
  149400    33.041852   -35816.349   -31006.123 
  149500    32.905044   -35835.132   -31044.822 
  149600    32.944025   -35811.641   -31015.657 
  149700    33.046757   -35799.752   -30988.813 
  149800    33.137845   -35831.961   -31007.761 
  149900    32.949789   -35835.649   -31038.826 
  150000    33.078269   -35835.146   -31019.619 
  150100    33.145731   -35823.176   -30997.827 
  150200    33.182945   -35825.255   -30994.489 
  150300    32.812039   -35830.909    -31054.14 
  150400    32.871865   -35813.595   -31028.116 
  150500    32.971908   -35818.354    -31018.31 
  150600    33.049967   -35826.348   -31014.941 
  150700    33.124552   -35861.074   -31038.809 
  150800    32.923739   -35840.057   -31047.027 
  150900    32.916625   -35829.145    -31037.15 
  151000    33.097965   -35826.671   -31008.276 
  151100    33.055226    -35798.41   -30986.237 
  151200    33.156796   -35833.691   -31006.732 
  151300    32.900015   -35781.919   -30992.342 
  151400    32.958609   -35818.822   -31020.715 
  151500    32.987381   -35801.955   -30999.659 
  151600    33.096658    -35814.02   -30995.816 
  151700    32.879015   -35792.693   -31006.173 
  151800    32.914104   -35811.556   -31019.928 
  151900     33.12372   -35815.916   -30993.772 
  152000     32.77314    -35785.08   -31013.973 
  152100    33.121628   -35774.032   -30952.193 
  152200    33.008065   -35778.081   -30972.774 
  152300    33.193491   -35809.915   -30977.613 
  152400    33.054981   -35803.503   -30991.366 
  152500    32.993132   -35812.766   -31009.633 
  152600    32.830258   -35814.812    -31035.39 
  152700     32.79838   -35807.643   -31032.862 
  152800    32.914828   -35769.003    -30977.27 
  152900    32.827764   -35809.665   -31030.607 
  153000    33.060464   -35847.446   -31034.511 
  153100    32.897543   -35852.712   -31063.495 
  153200    32.976146   -35826.043   -31025.383 
  153300    32.967217   -35846.912   -31047.552 
  153400    32.927386   -35812.984   -31019.422 
  153500    32.962468    -35827.03   -31028.362 
  153600    33.135995   -35828.691    -31004.76 
  153700    32.863297   -35822.972    -31038.74 
  153800    33.103601   -35848.643   -31029.428 
  153900    33.036533   -35863.084   -31053.633 
  154000    33.174178   -35834.612   -31005.122 
  154100    33.148397   -35852.499   -31026.763 
  154200    32.913768   -35823.128   -31031.549 
  154300     33.09201   -35866.345   -31048.818 
  154400     33.12922   -35860.377   -31037.432 
  154500    33.071803   -35847.148   -31032.562 
  154600    32.805431    -35820.76   -31044.952 
  154700    32.688288   -35843.809   -31085.055 
  154800    33.022066   -35830.699   -31023.354 
  154900    33.047759   -35801.312   -30990.227 
  155000    32.972685   -35764.489   -30964.333 
  155100    33.079539   -35813.745   -30998.033 
  155200    32.921924   -35816.469   -31023.702 
  155300    32.995013   -35819.187    -31015.78 
  155400    32.997992   -35805.624   -31001.784 
  155500    33.144827   -35844.975   -31019.758 
  155600    33.025429   -35806.835   -30999.001 
  155700    33.194617   -35811.158   -30978.692 
  155800    33.017237   -35817.522    -31010.88 
  155900    32.954714   -35823.242   -31025.702 
  156000    33.139181   -35783.735    -30959.34 
  156100     32.96802   -35825.442   -31025.965 
  156200    32.900022   -35823.477   -31033.899 
  156300    32.841887   -35829.769   -31048.654 
  156400    32.854817   -35814.744   -31031.747 
  156500    33.040966   -35850.771   -31040.674 
  156600    33.087479   -35828.857   -31011.989 
  156700    33.069487   -35805.403   -30991.154 
  156800    32.935441   -35773.069   -30978.334 
  156900    32.858481   -35808.395   -31024.864 
  157000    33.005971   -35824.096   -31019.093 
  157100    32.937073   -35837.458   -31042.486 
  157200    33.118085   -35824.693    -31003.37 
  157300    32.961987   -35810.195   -31011.596 
  157400    32.873502   -35798.373   -31012.656 
  157500    33.114695   -35840.532   -31019.702 
  157600    33.158568   -35827.634   -31000.417 
  157700     33.05197   -35807.948    -30996.25 
  157800     33.10798   -35836.602    -31016.75 
  157900    32.845548   -35839.135   -31057.488 
  158000    32.915502   -35861.628   -31069.797 
  158100    32.854837   -35844.523   -31061.523 
  158200    32.895741   -35836.313   -31047.359 
  158300    33.053588   -35875.091   -31063.156 
  158400    33.024802   -35833.256   -31025.512 
  158500     33.04178   -35858.459   -31048.244 
  158600     33.02321   -35814.628   -31007.116 
  158700    33.049672   -35847.518   -31036.154 
  158800    33.084872   -35854.967   -31038.479 
  158900     32.86244   -35841.905   -31057.798 
  159000    33.126852   -35854.766   -31032.166 
  159100    32.895154   -35874.561   -31085.692 
  159200    33.086175   -35831.682   -31015.004 
  159300    32.889843   -35845.718   -31057.622 
  159400    33.110171   -35809.743   -30989.572 
  159500    32.921481   -35841.522    -31048.82 
  159600    32.857685   -35824.046   -31040.632 
  159700    32.920106   -35839.804   -31047.302 
  159800    32.896581   -35824.296   -31035.219 
  159900    32.837852   -35847.772   -31067.244 
  160000    33.065235   -35847.374   -31033.744 
  160100     32.88946   -35828.657   -31040.617 
  160200      32.9651   -35867.578   -31068.526 
  160300    33.219889   -35852.005   -31015.861 
  160400    33.179147   -35859.441   -31029.228 
  160500     32.86102   -35858.261    -31074.36 
  160600    33.026125    -35842.95   -31035.014 
  160700    32.963594   -35840.342   -31041.509 
  160800    32.898143   -35848.777   -31059.472 
  160900    32.954232   -35844.013   -31046.543 
  161000     32.89303   -35831.486   -31042.926 
  161100    32.870084   -35873.064   -31087.845 
  161200    32.920412   -35847.542   -31054.996 
  161300    32.844498    -35821.02   -31039.525 
  161400    32.949349   -35839.034   -31042.275 
  161500     32.92688   -35883.165   -31089.677 
  161600    32.744283   -35837.082   -31070.176 
  161700     32.93246   -35832.016   -31037.716 
  161800     33.10588   -35825.391   -31005.844 
  161900    33.145383   -35827.335   -31002.038 
  162000    33.097148   -35835.584   -31017.308 
  162100    33.038112   -35849.566   -31039.885 
  162200    32.923936   -35858.224   -31065.164 
  162300    33.002564   -35843.491   -31038.985 
  162400    32.992056    -35824.47   -31021.494 
  162500    32.897492   -35855.662   -31066.452 
  162600    33.110092    -35866.57    -31046.41 
  162700    33.173233   -35837.105   -31007.753 
  162800    32.997127    -35836.62   -31032.906 
  162900     32.88297   -35849.362   -31062.266 
  163000    32.768771   -35843.744   -31073.274 
  163100    33.078784   -35830.549   -31014.947 
  163200    32.983058    -35835.01   -31033.343 
  163300     33.03303   -35813.227   -31004.285 
  163400    33.047936   -35836.059   -31024.947 
  163500    32.794502    -35858.08   -31083.864 
  163600    33.070966   -35837.485   -31023.021 
  163700    32.855812   -35841.362    -31058.22 
  163800    32.866442   -35821.099   -31036.409 
  163900    32.938669   -35853.428   -31058.224 
  164000    32.979022   -35800.863   -30999.784 
  164100    32.898414   -35841.456   -31052.112 
  164200    32.871131   -35842.846   -31057.474 
  164300    33.076231   -35808.011    -30992.78 
  164400    33.230501   -35836.992   -30999.303 
  164500     32.96369   -35851.803   -31052.957 
  164600    32.824263   -35834.639    -31056.09 
  164700    32.945007   -35831.086   -31034.959 
  164800    33.093294   -35841.803   -31024.088 
  164900    33.172541   -35843.816   -31014.565 
  165000    32.839304   -35838.992   -31058.253 
  165100     32.83017   -35857.517   -31078.108 
  165200    33.289629    -35820.61   -30974.313 
  165300    32.879076   -35841.736   -31055.207 
  165400    32.894984   -35838.298   -31049.453 
  165500    32.880327   -35880.169   -31093.458 
  165600    32.928429   -35880.496   -31086.782 
  165700     33.06294    -35863.36   -31050.064 
  165800    32.970701   -35845.519   -31045.652 
  165900    32.942342   -35865.517   -31069.778 
  166000    33.124935   -35835.097   -31012.776 
  166100     33.11403   -35873.712   -31052.979 
  166200    33.064558   -35873.205   -31059.674 
  166300    33.073158    -35869.77   -31054.987 
  166400    33.170025   -35872.868   -31043.983 
  166500    33.067486   -35862.468   -31048.511 
  166600    32.977391   -35847.892    -31047.05 
  166700    33.014113   -35812.772   -31006.585 
  166800    33.051277   -35814.139   -31002.541 
  166900    32.983896   -35809.759   -31007.971 
  167000    33.024032   -35799.653   -30992.021 
  167100    32.947754   -35854.452   -31057.925 
  167200    33.206331   -35823.724   -30989.554 
  167300    32.999862   -35817.587   -31013.475 
  167400    32.842673   -35847.268   -31066.039 
  167500    32.840259   -35839.038    -31058.16 
  167600    32.876167   -35859.142   -31073.037 
  167700    32.742434   -35847.661   -31081.025 
  167800    32.924711   -35832.278   -31039.106 
  167900    32.876404   -35870.451   -31084.311 
  168000    33.067836   -35837.507   -31023.499 
  168100    32.995535   -35862.399   -31058.916 
  168200    32.993926   -35876.377   -31073.128 
  168300    32.749653   -35857.158   -31089.471 
  168400    32.754685   -35888.159   -31119.739 
  168500    33.211132   -35884.087   -31049.218 
  168600     32.85535   -35912.543   -31129.468 
  168700    32.787613   -35873.102   -31099.888 
  168800    32.761127   -35876.679   -31107.321 
  168900    32.985022   -35857.707   -31055.755 
  169000    32.942283   -35856.808   -31061.077 
  169100    33.010065   -35883.273   -31077.675 
  169200    33.142762   -35864.403   -31039.487 
  169300    32.904192   -35857.032   -31066.847 
  169400    33.053925   -35840.649   -31028.666 
  169500    33.118049   -35838.066   -31016.748 
  169600    32.932203   -35853.259   -31058.996 
  169700     32.83674   -35845.947   -31065.582 
  169800    33.078049   -35821.956   -31006.461 
  169900    32.977974   -35846.557    -31045.63 
  170000    32.900717   -35834.172   -31044.493 
  170100    33.096529   -35863.331   -31045.146 
  170200    33.149449   -35865.736   -31039.847 
  170300    32.826314   -35864.927   -31086.079 
  170400     32.98882   -35872.891   -31070.386 
  170500    33.103829   -35868.688    -31049.44 
  170600    33.108939   -35862.702    -31042.71 
  170700    32.959189     -35858.8   -31060.608 
  170800    33.088619   -35905.429   -31088.395 
  170900    32.938942   -35867.567   -31072.323 
  171000    32.916147   -35844.588   -31052.662 
  171100    32.853989    -35865.14   -31082.263 
  171200    32.989019   -35893.969   -31091.435 
  171300    33.066278   -35886.678   -31072.897 
  171400     32.95549   -35856.305   -31058.652 
  171500    33.209532   -35907.235   -31072.599 
  171600    33.227866   -35852.912   -31015.607 
  171700    33.140772   -35899.929   -31075.302 
  171800    32.905129   -35884.731   -31094.409 
  171900    32.893764   -35887.072   -31098.405 
  172000    33.021319   -35860.131   -31052.895 
  172100    33.157509   -35872.988   -31045.925 
  172200    33.139218    -35854.02    -31029.62 
  172300    32.931583    -35877.31   -31083.137 
  172400    33.062621   -35857.069    -31043.82 
  172500    32.917115   -35852.571   -31060.504 
  172600    32.989471   -35866.504   -31063.904 
  172700    33.078294   -35844.849   -31029.319 
  172800    33.031837   -35871.542   -31062.774 
  172900    33.029073   -35862.268   -31053.903 
  173000     32.94326   -35833.269   -31037.396 
  173100    32.938332   -35861.052   -31065.897 
  173200    33.022389   -35841.923   -31034.531 
  173300    32.904291   -35827.961   -31037.761 
  173400    32.992434   -35835.985   -31032.954 
  173500    32.968071   -35851.182   -31051.697 
  173600    32.974906    -35848.58     -31048.1 
  173700    32.977945   -35833.917   -31032.995 
  173800    33.107546    -35882.15   -31062.361 
  173900    33.120724    -35846.71   -31025.002 
  174000    33.044969   -35833.666   -31022.986 
  174100    32.858169   -35842.399   -31058.914 
  174200    32.951217   -35847.066   -31050.035 
  174300    33.217032   -35902.806   -31067.078 
  174400    32.968262   -35836.264   -31036.752 
  174500    32.950667    -35859.95   -31062.999 
  174600    33.182844   -35872.851     -31042.1 
  174700    32.970105   -35849.689   -31049.908 
  174800    32.856082   -35870.642   -31087.461 
  174900    33.023317   -35849.986   -31042.458 
  175000    33.148677   -35855.935   -31030.158 
  175100    33.085247   -35850.236   -31033.693 
  175200    33.043948   -35899.116   -31088.585 
  175300    33.153675   -35863.234   -31036.729 
  175400     33.03856   -35867.094   -31057.348 
  175500    33.113192   -35859.524   -31038.913 
  175600    33.166058   -35886.241   -31057.934 
  175700    32.970961   -35867.119   -31067.214 
  175800    33.221824   -35844.298   -31007.872 
  175900    32.838492   -35868.051    -31087.43 
  176000    33.177943   -35879.696   -31049.658 
  176100    32.960687   -35824.288   -31025.878 
  176200    32.966336   -35865.473   -31066.241 
  176300    32.713046   -35818.944   -31056.585 
  176400    32.811536   -35823.508   -31046.812 
  176500    33.005443   -35873.007   -31068.082 
  176600    33.022449   -35831.784   -31024.384 
  176700    33.208035   -35847.438    -31013.02 
  176800    32.970362   -35842.249    -31042.43 
  176900    33.051458    -35843.39   -31031.766 
  177000    33.169816    -35854.78   -31025.925 
  177100    32.895638   -35830.805   -31041.865 
  177200    33.065104    -35873.57    -31059.96 
  177300    32.758273   -35860.283   -31091.341 
  177400    32.994548   -35826.673   -31023.334 
  177500    32.858967   -35858.525   -31074.924 
  177600    32.883682   -35864.799   -31077.599 
  177700    33.052576    -35836.69   -31024.904 
  177800    32.839257   -35868.216   -31087.484 
  177900    33.046608   -35865.585   -31054.667 
  178000    33.090751   -35830.336   -31012.992 
  178100    32.968477   -35863.465   -31063.921 
  178200    33.221111   -35837.541   -31001.219 
  178300    33.170633    -35844.03   -31015.056 
  178400    32.929922   -35814.105   -31020.174 
  178500    33.081053   -35860.986   -31045.053 
  178600    33.099302   -35835.911   -31017.322 
  178700    33.273844   -35810.755   -30966.756 
  178800    32.827818   -35830.157    -31051.09 
  178900    32.885157   -35819.536   -31032.122 
  179000    32.736394   -35839.526   -31073.769 
  179100    32.904612   -35842.402   -31052.156 
  179200    32.843044   -35863.724   -31082.441 
  179300    32.980397   -35829.453   -31028.174 
  179400    32.961227    -35870.16   -31071.671 
  179500    32.925762   -35886.093   -31092.768 
  179600    33.055592   -35852.152   -31039.926 
  179700    32.971777   -35884.759   -31084.735 
  179800    33.069436   -35873.448   -31059.207 
  179900    33.101924   -35886.921    -31067.95 
  180000    33.037828   -35869.684   -31060.044 
  180100     32.90588   -35876.854   -31086.423 
  180200    32.901528    -35874.72   -31084.922 
  180300    32.952141   -35870.703   -31073.537 
  180400    32.883472   -35850.373   -31063.204 
  180500    32.934017   -35854.614   -31060.087 
  180600    32.823183   -35896.918   -31118.526 
  180700    32.885964   -35873.766   -31086.234 
  180800    32.924148   -35840.337   -31047.247 
  180900    33.025927   -35857.567    -31049.66 
  181000    33.129411   -35873.449   -31050.476 
  181100    33.055207   -35829.034   -31016.864 
  181200    32.902965   -35845.931   -31055.924 
  181300    33.046468   -35872.282   -31061.385 
  181400    32.975261   -35819.537   -31019.005 
  181500    32.953311   -35850.503   -31053.167 
  181600    32.782867   -35809.211   -31036.689 
  181700     33.10867   -35839.645   -31019.692 
  181800    33.030489   -35854.298   -31045.727 
  181900    33.072343   -35827.978   -31013.313 
  182000    32.948268     -35823.2   -31026.599 
  182100    32.906119   -35839.374   -31048.908 
  182200     33.03254   -35826.452   -31017.582 
  182300    33.174393   -35851.215   -31021.694 
  182400    33.033298   -35805.972   -30996.992 
  182500    32.782561   -35841.016   -31068.538 
  182600      32.7761    -35864.84   -31093.303 
  182700    33.001737   -35830.103   -31025.718 
  182800    33.072664   -35862.511   -31047.799 
  182900     32.89679   -35857.718    -31068.61 
  183000    32.953525   -35862.709   -31065.342 
  183100    33.126939   -35835.885   -31013.273 
  183200    33.050775    -35864.44   -31052.915 
  183300    32.921593   -35826.205   -31033.487 
  183400    32.949663   -35845.844   -31049.039 
  183500    32.940939   -35861.846   -31066.311 
  183600    32.925447   -35853.916   -31060.637 
  183700    33.034675   -35847.197   -31038.016 
  183800    33.051835   -35870.241   -31058.562 
  183900    32.910464   -35847.729   -31056.631 
  184000    33.005525   -35885.889   -31080.951 
  184100    32.846714   -35838.804   -31056.987 
  184200     32.98177   -35855.985   -31054.507 
  184300     32.92328    -35844.01   -31051.046 
  184400    33.154257   -35858.741   -31032.151 
  184500    32.829555   -35822.958   -31043.639 
  184600    32.876676   -35857.779     -31071.6 
  184700    33.045405   -35864.447   -31053.704 
  184800    32.948064   -35840.107   -31043.535 
  184900    32.998912   -35841.106   -31037.131 
  185000    33.067013    -35820.43   -31006.541 
  185100    33.121942   -35852.695    -31030.81 
  185200    32.958317   -35822.384   -31024.319 
  185300    32.746157   -35821.771   -31054.593 
  185400    33.303281   -35837.636   -30989.352 
  185500    32.874953    -35833.31   -31047.382 
  185600    33.061053   -35825.911    -31012.89 
  185700    33.209564   -35822.732   -30988.091 
  185800    33.001778   -35862.177   -31057.785 
  185900    32.936219   -35849.068    -31054.22 
  186000    33.096661   -35826.614   -31008.409 
  186100    33.073046   -35856.429   -31041.662 
  186200    33.072046    -35872.01   -31057.389 
  186300    32.908789   -35896.459   -31105.605 
  186400     32.78929   -35868.062   -31094.604 
  186500    33.091967   -35832.007   -31014.486 
  186600    33.121915   -35870.008   -31048.127 
  186700    33.091844   -35873.719   -31056.215 
  186800    32.904783    -35879.14   -31088.869 
  186900    33.027815    -35905.14   -31096.958 
  187000    33.003011   -35873.694   -31069.123 
  187100    33.103847   -35876.891    -31057.64 
  187200    33.183017   -35858.583   -31027.807 
  187300    33.256437   -35869.595    -31028.13 
  187400     33.10738   -35855.853   -31036.087 
  187500    32.886014   -35839.894   -31052.356 
  187600    32.993998    -35843.97   -31040.712 
  187700    33.372749   -35845.742   -30987.344 
  187800    33.260265   -35860.483   -31018.461 
  187900    32.907997   -35848.521   -31057.782 
  188000    33.193123   -35856.716   -31024.469 
  188100    33.132357   -35846.836   -31023.434 
  188200    33.130252   -35859.654   -31036.559 
  188300    33.004473   -35831.129   -31026.344 
  188400    33.120725   -35840.267   -31018.559 
  188500    32.994174   -35870.792   -31067.507 
  188600    32.962979   -35829.751   -31031.008 
  188700    32.958895   -35859.862   -31061.713 
  188800    33.181928   -35838.736   -31008.118 
  188900    33.119072   -35836.427    -31014.96 
  189000    33.068355   -35849.792   -31035.708 
  189100    32.915744   -35848.751   -31056.884 
  189200    32.958534   -35841.237    -31043.14 
  189300    33.113739   -35861.042   -31040.351 
  189400    33.072753   -35834.348   -31019.624 
  189500    33.035364   -35882.401    -31073.12 
  189600    32.895972   -35857.742   -31068.754 
  189700    32.785846   -35867.742   -31094.785 
  189800    33.057704   -35901.368   -31088.835 
  189900    33.169693   -35898.244   -31069.408 
  190000    33.050317   -35866.902   -31055.445 
  190100    32.829547   -35840.814   -31061.495 
  190200     32.91809    -35888.63   -31096.421 
  190300    33.089062   -35871.962   -31054.864 
  190400      32.9299   -35885.232   -31091.304 
  190500    32.805376   -35844.582   -31068.782 
  190600    32.802977     -35889.8   -31114.349 
  190700     32.83504   -35862.392   -31082.274 
  190800    33.053619    -35845.35   -31033.412 
  190900    33.017792   -35852.462   -31045.739 
  191000    33.180425   -35882.736   -31052.337 
  191100    32.998501   -35831.324    -31027.41 
  191200    32.984266   -35848.503   -31046.661 
  191300    32.825631   -35851.101   -31072.353 
  191400    32.836932   -35875.933   -31095.539 
  191500    33.107578   -35842.462   -31022.668 
  191600    33.104108   -35847.101   -31027.812 
  191700    33.084337   -35815.284   -30998.873 
  191800    33.028036   -35877.033   -31068.818 
  191900    33.224684   -35823.067   -30986.225 
  192000     32.98351   -35811.665   -31009.932 
  192100     32.88957   -35805.084   -31017.028 
  192200    32.838224    -35848.96   -31068.379 
  192300     33.12693   -35839.578   -31016.966 
  192400    33.092597   -35855.022   -31037.409 
  192500    32.782009   -35870.822   -31098.424 
  192600    33.117501   -35871.325   -31050.087 
  192700    32.968162   -35878.482   -31078.985 
  192800     33.14716   -35859.216   -31033.659 
  192900    33.023406   -35827.829   -31020.289 
  193000    32.914157   -35877.706   -31086.071 
  193100    32.812489   -35873.176   -31096.341 
  193200    32.929818   -35894.286   -31100.371 
  193300    33.067309   -35898.637   -31084.705 
  193400    32.954865   -35903.955   -31106.393 
  193500    32.889072   -35861.197   -31073.213 
  193600    33.174172   -35900.188     -31070.7 
  193700    32.988495   -35908.353   -31105.895 
  193800    32.963382   -35903.515   -31104.713 
  193900    32.906736   -35896.343   -31105.787 
  194000     33.08037   -35874.445   -31058.611 
  194100    32.888797   -35914.723    -31126.78 
  194200     33.09342   -35872.404   -31054.671 
  194300    33.096723   -35883.456   -31065.243 
  194400    32.931958   -35838.821   -31044.594 
  194500    33.037228   -35843.629   -31034.076 
  194600    33.021879   -35835.066   -31027.748 
  194700    32.835676   -35824.389   -31044.179 
  194800    33.262466   -35815.402    -30973.06 
  194900    32.944972   -35835.188   -31039.066 
  195000    33.124818   -35824.897   -31002.593 
  195100    32.966967   -35853.824   -31054.501 
  195200    32.952365    -35841.67   -31044.472 
  195300    32.951833   -35824.709   -31027.588 
  195400    33.052673   -35811.025   -30999.224 
  195500    32.926824   -35814.167   -31020.687 
  195600    32.951789   -35818.344   -31021.229 
  195700    32.856028   -35851.481   -31068.308 
  195800    32.929132   -35828.877   -31035.061 
  195900    33.131342   -35867.274   -31044.021 
  196000    32.871963   -35853.963    -31068.47 
  196100    32.986522   -35881.879   -31079.708 
  196200    32.916096    -35854.47   -31062.552 
  196300    33.084866   -35884.548   -31068.061 
  196400    32.931329   -35846.133   -31051.998 
  196500    32.898011   -35889.423   -31100.137 
  196600    32.965248   -35894.778   -31095.704 
  196700     32.88416   -35874.613   -31087.344 
  196800    33.022721   -35873.256   -31065.815 
  196900    32.955265   -35897.073   -31099.453 
  197000     33.22148   -35896.484   -31060.108 
  197100    33.030893   -35884.995   -31076.365 
  197200    32.982371   -35890.589   -31089.023 
  197300    33.008326   -35917.681   -31112.336 
  197400    32.966124   -35898.622   -31099.421 
  197500    32.915043   -35865.641   -31073.877 
  197600    32.939408   -35880.743   -31085.431 
  197700    32.796769   -35889.662   -31115.115 
  197800    32.789548   -35889.848   -31116.353 
  197900     32.81359   -35855.833   -31078.837 
  198000    33.011079   -35869.742   -31063.996 
  198100    33.337698   -35892.126   -31038.831 
  198200    33.014695   -35849.959   -31043.687 
  198300    32.907079   -35874.509   -31083.904 
  198400    33.047712   -35861.601   -31050.523 
  198500    33.128865   -35845.998   -31023.105 
  198600     32.83881   -35827.426   -31046.759 
  198700    33.095647   -35875.347    -31057.29 
  198800    33.012168   -35859.948   -31054.044 
  198900    33.206845   -35831.116    -30996.87 
  199000    33.155377   -35843.662    -31016.91 
  199100    33.125571   -35849.724   -31027.311 
  199200    32.937207   -35874.173   -31079.182 
  199300    33.028522   -35852.626   -31044.341 
  199400    32.755443   -35849.217   -31080.686 
  199500    33.034094   -35852.247   -31043.151 
  199600    32.952404   -35867.772   -31070.568 
  199700    33.083346   -35855.394   -31039.127 
  199800    32.987173   -35893.759   -31091.493 
  199900     32.88721   -35855.342   -31067.629 
  200000    33.101866   -35872.408   -31053.446 
Loop time of 15097.3 on 32 procs for 200000 steps with 81390 atoms

Performance: 5.723 ns/day, 4.194 hours/ns, 13.247 timesteps/s
85.0% CPU use with 4 MPI tasks x 8 OpenMP threads

MPI task timing breakdown:
Section |  min time  |  avg time  |  max time  |%varavg| %total
---------------------------------------------------------------
Pair    | 269.43     | 2801.2     | 8718.7     |6572.0 | 18.55
Bond    | 0.039385   | 32.48      | 110.09     | 798.8 |  0.22
Neigh   | 810.18     | 828.18     | 843.22     |  41.2 |  5.49
Comm    | 1573.5     | 5620.8     | 8807.6     |4301.1 | 37.23
Output  | 108.25     | 402.99     | 501.56     | 847.7 |  2.67
Modify  | 324.44     | 3315.8     | 7355.4     |5147.1 | 21.96
Other   |            | 2096       |            |       | 13.88

Nlocal:    20347.5 ave 49063 max 7998 min
Histogram: 2 1 0 0 0 0 0 0 0 1
Nghost:    7618.5 ave 15444 max 2400 min
Histogram: 2 0 0 0 0 1 0 0 0 1
Neighs:    1.52299e+06 ave 4.68128e+06 max 216113 min
Histogram: 2 1 0 0 0 0 0 0 0 1

Total # of neighbors = 6091971
Ave neighs/atom = 74.8491
Ave special neighs/atom = 1.05013
Neighbor list builds = 6942
Dangerous builds = 0


Total wall time: 4:12:27
