LAMMPS (3 Mar 2020)
  using 8 OpenMP thread(s) per MPI task
##

############################################################
#####	 	    Argon sandwich	   	   #########
############################################################
variable		temperature equal 85.0

units			real
atom_style		atomic
dimension 		3
boundary		p p p

read_data		atomdata
  orthogonal box = (0 0 0) to (687.75 121.83 110.04)
  4 by 1 by 1 MPI processor grid
  reading atoms ...
  81390 atoms
  read_data CPU = 0.124245 secs
#read_restart 		water.restart.mpiio

############################################################
#############INTERACTION PARAMETERS#########################
group                   bread     type 1:2
32550 atoms in group bread
group                   ham       type 3
48840 atoms in group ham

mass           		3 	39.792  ## atomic mass of argon
mass                    2       195.084  ## atomic mass of platinum
mass                    1       195.084  ## atomic mass of platinum

neighbor        	2.0 bin
neigh_modify		every 1 delay 1 check yes

################# hybrid potential #######################
#pair_style 		hybrid/overlay lj/cut 18.7 sw

#pair_coeff              * * sw mW.sw mW NULL
#pair_coeff	    	2 2  lj/cut 15.999 2.47 7.0
#pair_coeff		1 2  lj/cut 0.9 2.8140 7.0
################### L-J potential #####################
pair_style             lj/cut  5.5

pair_coeff             3 3  0.24 3.4  18.7
pair_coeff             2 3  0.168 2.72  18.7
pair_coeff             1 3  0.168 2.72  18.7
pair_coeff             1 2  0.0   0.0   1.0
pair_coeff             2 2  15.999 2.47  7.0
pair_coeff             1 1  15.999 2.47  7.0
######################################################

fix	    		f1 bread setforce 0.0 0.0 0.0
thermo			5
min_style 		fire
minimize    		1.0e-5 1.0e-7 200 10000
WARNING: Using 'neigh_modify every 1 delay 0 check yes' setting during minimization (../min.cpp:190)
Neighbor list info ...
  update every 1 steps, delay 0 steps, check yes
  max neighbors/atom: 2000, page size: 100000
  master list distance cutoff = 20.7
  ghost atom cutoff = 20.7
  binsize = 10.35, bins = 67 12 11
  1 neighbor lists, perpetual/occasional/extra = 1 0 0
  (1) pair lj/cut, perpetual
      attributes: half, newton on
      pair build: half/bin/atomonly/newton
      stencil: half/bin/3d/newton
      bin: standard
  Parameters for fire: 
    dmax delaystep dtgrow dtshrink alpha0 alphashrink tmax tmin    integrator halfstepback 
     0.1        20    1.1      0.5   0.25        0.99   10 0.02 eulerimplicit          yes 
Per MPI rank memory allocation (min/avg/max) = 27.61 | 35.2 | 40.6 Mbytes
Step Temp E_pair E_mol TotEng Press 
       0            0    210214.96            0    210214.96    14983.894 
       5    666.62418   -24540.259            0     137186.2    8591.8536 
      10    1254.1043   -217754.46            0    86497.704    3273.2036 
      15    1500.5024   -316983.51            0    47046.107    386.02806 
      20    1596.9243    -368979.6            0    18442.465   -1227.5562 
      25    1641.7836   -402323.35            0    -4018.205   -2337.8947 
      30    1606.9753   -425905.36            0   -36044.883   -3277.0954 
      35    1415.5696   -436107.74            0   -92683.274   -3964.3135 
      40    1120.2584   -439493.99            0   -167713.53   -4509.3678 
      45    856.11296   -440786.46            0   -233089.05   -4902.5565 
      50    612.27186   -441810.47            0   -293270.16   -5228.1595 
      55    412.46921   -442974.01            0   -342906.85   -5467.1547 
      60    283.55121   -443977.26            0   -375186.28   -5614.6812 
      65    209.15508   -444935.26            0   -394193.16   -5698.1021 
      70    153.52525   -445835.54            0   -408589.52   -5758.0353 
      75    116.08489   -446714.42            0   -418551.63    -5796.959 
      80    82.901737   -447608.28            0   -427495.89   -5830.1617 
      85    60.098593   -448374.11            0   -433793.88   -5853.6185 
      90    45.591144   -449027.17            0   -437966.52    -5868.376 
      95    36.566184   -449598.14            0   -440726.99   -5876.9546 
     100    30.675142    -450108.2            0   -442666.26   -5881.9249 
     105    26.672779   -450573.04            0   -444102.09   -5884.8186 
     110    23.829825   -451003.36            0   -445222.12   -5886.3896 
     115    21.689846   -451405.17            0    -446143.1   -5887.0222 
     120    20.015017   -451783.94            0   -446928.19    -5887.046 
     125    18.652093   -452141.96            0   -447616.87   -5886.6417 
     130     17.45954   -452481.05            0   -448245.27   -5886.0442 
     135    16.415569   -452803.93            0   -448821.43   -5885.4095 
     140    15.511929   -453112.76            0   -449349.48   -5884.7966 
     145    14.710337   -453408.59            0   -449839.78   -5884.2129 
     150    13.986191   -453692.52            0    -450299.4   -5883.6512 
     155    13.333607   -453965.15            0   -450730.35    -5883.069 
     160     12.73195   -454226.71            0   -451137.87   -5882.4461 
     165    12.142749   -454477.65            0   -451531.76   -5881.8212 
     170    11.596093   -454719.71            0   -451906.44   -5881.2162 
     175    11.107424   -454953.47            0   -452258.75   -5880.5961 
     180    10.664471   -455179.44            0   -452592.19   -5879.9442 
     185    10.256616   -455397.97            0   -452909.66    -5879.248 
     190    9.8746677   -455608.77            0   -453213.12   -5878.4981 
     195     9.487294    -455811.7            0   -453510.04   -5877.7555 
     200    9.1172462   -456008.03            0   -453796.14   -5877.0692 
Loop time of 12.9641 on 32 procs for 200 steps with 81390 atoms

97.4% CPU use with 4 MPI tasks x 8 OpenMP threads

Minimization stats:
  Stopping criterion = max iterations
  Energy initial, next-to-last, final = 
         210214.964767     -455969.275278      -456008.02888
  Force two-norm initial, final = 53599.3 25.4892
  Force max component initial, final = 1232.43 0.810663
  Final line search alpha, max atom move = 0 0
  Iterations, force evaluations = 200 201

MPI task timing breakdown:
Section |  min time  |  avg time  |  max time  |%varavg| %total
---------------------------------------------------------------
Pair    | 4.748      | 8.9495     | 11.183     |  87.8 | 69.03
Neigh   | 0.4953     | 0.80712    | 0.97382    |  21.7 |  6.23
Comm    | 0.48771    | 2.8713     | 7.2441     | 161.8 | 22.15
Output  | 0.018898   | 0.020417   | 0.022047   |   1.0 |  0.16
Modify  | 0.0064936  | 0.0080653  | 0.0091627  |   1.1 |  0.06
Other   |            | 0.3077     |            |       |  2.37

Nlocal:    20347.5 ave 23421 max 14487 min
Histogram: 1 0 0 0 0 0 1 0 0 2
Nghost:    29398 ave 32013 max 25755 min
Histogram: 1 0 0 1 0 0 0 0 0 2
Neighs:    2.47726e+06 ave 3.08123e+06 max 1.33863e+06 min
Histogram: 1 0 0 0 0 0 1 0 0 2

Total # of neighbors = 9909055
Ave neighs/atom = 121.748
Neighbor list builds = 12
Dangerous builds = 0


############################################################
#############EQUILIBRATION PARAMETERS######################
velocity 		ham create ${temperature} 12345
velocity 		ham create 85 12345
compute 		myTemp ham temp
fix			1 ham nvt temp ${temperature} ${temperature} 100.0
fix			1 ham nvt temp 85 ${temperature} 100.0
fix			1 ham nvt temp 85 85 100.0
fix_modify   		1 temp myTemp
WARNING: Temperature for fix modify is not for group all (../fix_nh.cpp:1409)

fix	    		f2 bread setforce 0.0 0.0 0.0
velocity		bread set 0.0 0.0 0.0

###########################################################
############### Post parameters############################
thermo_style    	custom step temp pe etotal
thermo_modify	        temp myTemp
WARNING: Temperature for thermo pressure is not for group all (../thermo.cpp:485)
thermo			100
fix            		extra ham print 2000 "$(step) $(temp) $(pe)" append iteration_info.dat 			screen no

timestep		5.0
reset_timestep 		0
restart     		100000 water.restart.mpiio
dump			1 all custom 500 sandwich.dat id type x y z
run			200000
Per MPI rank memory allocation (min/avg/max) = 30.25 | 37.97 | 43.49 Mbytes
Step Temp PotEng TotEng 
       0           85   -456008.03   -443633.75 
     100    73.730302   -450383.65   -439650.01 
     200    84.779816   -447554.46   -435212.23 
     300    85.122726   -446985.07   -434592.92 
     400    84.995927   -447197.43   -434823.75 
     500    84.803661   -447565.89   -435220.19 
     600    84.871736    -448132.5   -435776.89 
     700    85.313623   -448721.94      -436302 
     800    85.409747   -449367.38   -436933.45 
     900    85.078274   -450029.74   -437644.06 
    1000    85.484828   -450680.91   -438236.05 
    1100    85.013701   -451368.69   -438992.42 
    1200    84.977923   -452024.08   -439653.01 
    1300    85.196881   -452721.89   -440318.95 
    1400    84.793301   -453449.26   -441105.07 
    1500    85.104417    -454104.9   -441715.42 
    1600    84.973009   -454696.62   -442326.27 
    1700    85.046677   -455290.82   -442909.75 
    1800    85.175702   -455892.83   -443492.97 
    1900    85.092975   -456502.06   -444114.25 
    2000    85.070019   -457087.02   -444702.55 
    2100    84.491927   -457505.85   -445205.53 
    2200    84.913368   -457989.57    -445627.9 
    2300    85.147041    -458473.5   -446077.82 
    2400    85.194107   -458979.54      -446577 
    2500    84.789238   -459413.45   -447069.85 
    2600    84.839536   -459894.91   -447543.99 
    2700    84.865031   -460319.25   -447964.61 
    2800    85.129385   -460674.39   -448281.27 
    2900     85.17702    -461085.3   -448685.25 
    3000    85.144546   -461435.67   -449040.34 
    3100    85.344014   -461798.55   -449374.19 
    3200    85.299097   -462264.67   -449846.85 
    3300    85.584883   -462658.89   -450199.46 
    3400    85.054084   -462953.15   -450570.99 
    3500    85.379816   -463335.76   -450906.19 
    3600    85.332477   -463607.94   -451185.26 
    3700    85.132929   -463879.54   -451485.91 
    3800    85.285599   -464253.13   -451837.28 
    3900    84.998819   -464547.48   -452173.37 
    4000    85.239215   -464825.84   -452416.73 
    4100    85.315661   -465041.91   -452621.68 
    4200    85.014925   -465366.29   -452989.84 
    4300    84.696952   -465566.48   -453236.31 
    4400    85.086294   -465793.35    -453406.5 
    4500    85.070058   -466035.22   -453650.74 
    4600    85.030284   -466283.61   -453904.92 
    4700    84.686706   -466534.87    -454206.2 
    4800    85.246069   -466736.06   -454325.95 
    4900    84.873335   -467024.43   -454668.59 
    5000    84.901976   -467177.46   -454817.45 
    5100    84.833821   -467397.08   -455046.99 
    5200    84.858826   -467583.06   -455229.33 
    5300     84.93615   -467839.25   -455474.26 
    5400    85.287178    -468010.3   -455594.21 
    5500    84.934456    -468210.9   -455846.16 
    5600    85.186975   -468490.98   -456089.48 
    5700    85.309789   -468716.91   -456297.53 
    5800    85.146638   -468865.77   -456470.14 
    5900    84.891454   -469042.07    -456683.6 
    6000    85.406518   -469189.46      -456756 
    6100    85.287329   -469355.15   -456939.04 
    6200    85.077852   -469445.48   -457059.87 
    6300    84.530746   -469492.04   -457186.07 
    6400    84.814127   -469659.47   -457312.24 
    6500    85.108091   -469757.13   -457367.11 
    6600    85.037476   -469853.26   -457473.52 
    6700    84.725185   -469908.47    -457574.2 
    6800    85.545804   -469978.95   -457525.21 
    6900    84.564077   -470120.71   -457809.89 
    7000    84.834257   -470071.87   -457721.72 
    7100    85.590041   -470225.41   -457765.24 
    7200    85.574801   -470243.53   -457785.57 
    7300    84.498867    -470344.5   -458043.17 
    7400    84.926494   -470400.97   -458037.39 
    7500    85.124656   -470447.91   -458055.49 
    7600    84.168974   -470536.31   -458283.01 
    7700    85.337917   -470644.49   -458221.01 
    7800     85.50772   -470750.12   -458301.92 
    7900    84.889749   -470824.43    -458466.2 
    8000    84.863582   -470938.61   -458584.19 
    8100    84.663695   -470947.93   -458622.61 
    8200    85.020118   -470995.75   -458618.54 
    8300    85.571213   -471041.39   -458583.95 
    8400    85.717574   -471226.55   -458747.81 
    8500    84.427335    -471261.4   -458970.48 
    8600    84.878963   -471279.46    -458922.8 
    8700    84.985742   -471330.28   -458958.08 
    8800    84.811059   -471327.23   -458980.45 
    8900    85.235341   -471371.59   -458963.05 
    9000    84.904269   -471426.17   -459065.82 
    9100     85.54387   -471486.09   -459032.63 
    9200    85.177406   -471573.65   -459173.54 
    9300    84.842786   -471489.58   -459138.19 
    9400    84.662358   -471668.89   -459343.76 
    9500    84.708822   -471734.66   -459402.76 
    9600    84.789969   -471816.39   -459472.69 
    9700    85.000238   -471814.41    -459440.1 
    9800    85.559528   -471881.41   -459425.67 
    9900    84.883515   -471934.98   -459577.66 
   10000    85.699122   -472012.85   -459536.79 
   10100    85.047511   -472064.29    -459683.1 
   10200     84.66761   -472188.87   -459862.98 
   10300    85.522565   -472128.47   -459678.12 
   10400    84.438923   -472221.37   -459928.77 
   10500     84.98717   -472265.77   -459893.35 
   10600    84.765053   -472258.47   -459918.39 
   10700    84.993905   -472349.21   -459975.81 
   10800    85.104034   -472415.42   -460025.99 
   10900      85.1355   -472417.91    -460023.9 
   11000    85.198625   -472565.16   -460161.96 
   11100    85.345823   -472583.22   -460158.59 
   11200    84.921614   -472673.14   -460310.27 
   11300    84.708212   -472746.44   -460414.64 
   11400    84.809861   -472876.77   -460530.16 
   11500    85.189484   -472902.43   -460500.56 
   11600    84.958896      -472901    -460532.7 
   11700     84.79592   -472992.31   -460647.74 
   11800    84.824486   -472952.45   -460603.72 
   11900    85.275378    -472902.8   -460488.43 
   12000    85.680187   -472977.97   -460504.66 
   12100    85.169524   -473017.29   -460618.33 
   12200     84.70777   -473087.74      -460756 
   12300    85.079016   -473027.64   -460641.85 
   12400    84.836472    -473078.5   -460728.03 
   12500    84.862215   -473051.14   -460696.92 
   12600     84.97345   -473079.62    -460709.2 
   12700    84.751002   -473000.73    -460662.7 
   12800    84.861823   -473059.21   -460705.04 
   12900    85.384623   -472992.77    -460562.5 
   13000    84.942467   -473024.48   -460658.58 
   13100    85.376941   -473115.47   -460686.32 
   13200     85.55703   -473103.12   -460647.75 
   13300    84.823651   -473159.43   -460810.82 
   13400    85.155721   -473104.99   -460708.04 
   13500    84.931049    -473190.8   -460826.56 
   13600    84.805218   -473282.76   -460936.84 
   13700    84.585844   -473219.66   -460905.67 
   13800    85.185769   -473314.63    -460913.3 
   13900    85.534935   -473318.56   -460866.41 
   14000    85.112795    -473394.7   -461003.99 
   14100    84.872401    -473456.3   -461100.59 
   14200    85.025414   -473414.67   -461036.69 
   14300    84.540721   -473442.41   -461134.99 
   14400    85.368486   -473433.68   -461005.76 
   14500    85.014467   -473468.03   -461091.64 
   14600    84.533246   -473422.63    -461116.3 
   14700    85.088508   -473506.25   -461119.09 
   14800    84.975909   -473645.35   -461274.58 
   14900    85.306195   -473568.81   -461149.95 
   15000    84.815976    -473479.4    -461131.9 
   15100    84.896968   -473598.33   -461239.05 
   15200    84.648783   -473632.26   -461309.11 
   15300    84.895519   -473646.88   -461287.81 
   15400    84.295515   -473582.77   -461311.05 
   15500    84.457917   -473620.92   -461325.55 
   15600    84.581967   -473649.89   -461336.47 
   15700    85.245524   -473630.87   -461220.85 
   15800    84.824766   -473684.54   -461335.77 
   15900    84.751724   -473603.31   -461265.17 
   16000    85.368964   -473597.15   -461169.16 
   16100     84.89081   -473619.62   -461261.24 
   16200    84.684706   -473668.56   -461340.18 
   16300    85.629888   -473714.84   -461248.86 
   16400    84.899986   -473679.69   -461319.96 
   16500    85.352392   -473738.45   -461312.87 
   16600    84.820762   -473649.12   -461300.93 
   16700    84.986174   -473733.32   -461361.05 
   16800    85.439707   -473691.48   -461253.19 
   16900    84.982776   -473686.39   -461314.62 
   17000    84.675539   -473719.69   -461392.65 
   17100    85.294145   -473663.64   -461246.54 
   17200    85.459345   -473680.55    -461239.4 
   17300    85.682478   -473737.11   -461263.47 
   17400    84.364461    -473709.6   -461427.84 
   17500    84.887391   -473819.12   -461461.23 
   17600    84.912047   -473705.59   -461344.11 
   17700    85.370796   -473745.47   -461317.21 
   17800    85.283964   -473710.93   -461295.31 
   17900    84.703778   -473730.51   -461399.36 
   18000    85.308388   -473747.31   -461328.13 
   18100    85.221567   -473735.36   -461328.82 
   18200    84.719233   -473767.72   -461434.31 
   18300    84.879384   -473801.68   -461444.95 
   18400    85.022621   -473846.27   -461468.69 
   18500    84.864402    -473838.6   -461484.05 
   18600    85.226361   -473866.37   -461459.14 
   18700    84.813153   -473891.37   -461544.29 
   18800    84.796084   -473905.74   -461561.14 
   18900    85.001736   -473951.13    -461576.6 
   19000    84.938477   -473901.12   -461535.79 
   19100    85.383934   -473940.04   -461509.86 
   19200    84.879552   -473873.22   -461516.48 
   19300    85.080493   -473928.62   -461542.62 
   19400    84.786195   -473900.12   -461556.96 
   19500    84.349698   -473882.44   -461602.83 
   19600    84.957539   -473904.76   -461536.66 
   19700    85.124831    -473879.3   -461486.85 
   19800    85.492065   -473918.24   -461472.33 
   19900     84.62914   -473892.82   -461572.53 
   20000    84.742508   -473882.91   -461546.12 
   20100     84.89044    -473976.9   -461618.56 
   20200    84.498058   -473923.81    -461622.6 
   20300    84.859951   -474023.94   -461670.05 
   20400    84.930852   -473934.23   -461570.01 
   20500    85.301849   -473918.26   -461500.04 
   20600    85.267826   -473922.14   -461508.87 
   20700    84.695852   -473922.18   -461592.17 
   20800    84.698963   -474024.27   -461693.82 
   20900    84.981437    -473979.9   -461608.32 
   21000    85.368938   -473886.67   -461458.68 
   21100    84.749885   -473969.76   -461631.89 
   21200    85.164577   -473978.45   -461580.21 
   21300    85.042913    -473968.1   -461587.57 
   21400    85.396939   -473929.11   -461497.04 
   21500    84.901174   -473977.16   -461617.27 
   21600    85.343489   -473972.76   -461548.47 
   21700    84.935194   -474008.68   -461643.83 
   21800     85.25624   -474009.75   -461598.16 
   21900    85.321269    -473985.1   -461564.04 
   22000    85.466697   -473977.21   -461534.99 
   22100    85.077061   -473983.08   -461597.58 
   22200    84.863314    -474067.1   -461712.71 
   22300     84.79075   -474040.95   -461697.13 
   22400    85.218357   -474101.77    -461695.7 
   22500    84.637963   -474050.86   -461729.28 
   22600    84.466188   -474072.29   -461775.72 
   22700    85.279397   -474119.01   -461704.05 
   22800    85.123279   -474223.58   -461831.35 
   22900    84.964572   -474083.04   -461713.92 
   23000    85.124157   -474168.23   -461775.87 
   23100    84.817389   -474136.75   -461789.05 
   23200    84.680294   -474185.55   -461857.81 
   23300    85.170843   -474170.21   -461771.05 
   23400    85.704612   -474212.26    -461735.4 
   23500     84.50027   -474210.08   -461908.54 
   23600    84.298364   -474234.45   -461962.31 
   23700    84.493041   -474317.02   -462016.54 
   23800    85.119089   -474330.51   -461938.89 
   23900    85.398788   -474299.15   -461866.81 
   24000    85.582476   -474266.94   -461807.86 
   24100    84.390721   -474258.54   -461972.96 
   24200    85.121076   -474236.05   -461844.15 
   24300    85.094387   -474206.72    -461818.7 
   24400    85.202774   -474225.37   -461821.57 
   24500    84.881137      -474239   -461882.02 
   24600     84.98754   -474263.52   -461891.05 
   24700    84.535107   -474322.72   -462016.11 
   24800    84.547599   -474341.39   -462032.97 
   24900    85.159502      -474387    -461989.5 
   25000    85.322422   -474389.59   -461968.37 
   25100    85.177606    -474412.2   -462012.06 
   25200    85.379389   -474382.52   -461953.01 
   25300    85.138916    -474366.3   -461971.79 
   25400    85.037004   -474334.24   -461954.57 
   25500    84.620676   -474330.65   -462011.59 
   25600    85.012816   -474420.91   -462044.76 
   25700    84.933232   -474404.49   -462039.93 
   25800    84.921136   -474365.87   -462003.07 
   25900    85.362848   -474395.57   -461968.47 
   26000    85.438478    -474412.8   -461974.68 
   26100    85.825319   -474459.87   -461965.44 
   26200     85.48779   -474422.14   -461976.84 
   26300    84.475275   -474489.22   -462191.33 
   26400    84.252552   -474449.05   -462183.58 
   26500    84.576875    -474482.7   -462170.02 
   26600     84.51039    -474433.4   -462130.39 
   26700    84.703325   -474513.87   -462182.77 
   26800    85.083938   -474400.96   -462014.46 
   26900    84.891673   -474477.41    -462118.9 
   27000    85.232276   -474455.25   -462047.16 
   27100    84.570446   -474520.54   -462208.79 
   27200    85.133423   -474473.67   -462079.97 
   27300    85.176903   -474669.68   -462269.65 
   27400     84.96848   -474609.47   -462239.78 
   27500     84.74742   -474632.99   -462295.48 
   27600    84.637662   -474583.18   -462261.65 
   27700    85.018352    -474720.4   -462343.45 
   27800     85.04438    -474589.5   -462208.75 
   27900      85.0303   -474605.44   -462226.75 
   28000    84.626873   -474522.46    -462202.5 
   28100    84.935261   -474615.59   -462250.73 
   28200    85.048067   -474619.31   -462238.03 
   28300    84.929321   -474562.03   -462198.04 
   28400    84.924228   -474606.46   -462243.21 
   28500    85.104351   -474682.94   -462293.47 
   28600    84.972007   -474654.23   -462284.02 
   28700    84.448542   -474671.24   -462377.24 
   28800    84.622186    -474709.6   -462390.32 
   28900    85.240075   -474724.19   -462314.96 
   29000    85.723058   -474725.39   -462245.85 
   29100    84.818731   -474747.07   -462399.18 
   29200    84.649129   -474676.87   -462353.67 
   29300     85.51855    -474747.3   -462297.53 
   29400     84.95074   -474809.37   -462442.26 
   29500    85.110205   -474782.39   -462392.06 
   29600    84.700486   -474777.26   -462446.58 
   29700    85.016694   -474790.29   -462413.58 
   29800    85.280506   -474769.02    -462353.9 
   29900    85.149294   -474823.17   -462427.15 
   30000    85.122567   -474801.39   -462409.27 
   30100    85.027171   -474851.11   -462472.87 
   30200    85.191761   -474909.92   -462507.73 
   30300    85.362904   -474904.94   -462477.82 
   30400    84.476923   -474935.54   -462637.41 
   30500    84.742647   -474957.05   -462620.24 
   30600    84.768348   -474946.93   -462606.37 
   30700    85.208532   -474925.94    -462521.3 
   30800    84.957192   -474865.53   -462497.48 
   30900    85.101791   -474911.14   -462522.04 
   31000    85.150345   -474949.28   -462553.11 
   31100     84.81852   -475019.54   -462671.68 
   31200    85.099446   -475003.64   -462614.88 
   31300    85.049584   -475030.93   -462649.43 
   31400    85.095139   -474968.26   -462580.13 
   31500    85.261642   -474987.23   -462574.86 
   31600    84.992561   -474946.28   -462573.08 
   31700    85.395341   -475005.76   -462573.92 
   31800     84.59813    -475007.3   -462691.52 
   31900     84.52383   -474993.24   -462688.28 
   32000    84.598521   -475049.19   -462733.35 
   32100    84.826022   -475038.09   -462689.14 
   32200     84.32191   -475018.23   -462742.66 
   32300    84.522536   -475055.09   -462750.32 
   32400    85.169356   -475078.24   -462679.31 
   32500    84.871689   -475052.39   -462696.78 
   32600    85.067947   -475054.91   -462670.73 
   32700    85.036416   -475010.77   -462631.19 
   32800    85.147836   -474991.56   -462595.76 
   32900    85.200122   -475020.38   -462616.96 
   33000    85.224208   -475111.51   -462704.59 
   33100    84.815639   -475124.47   -462777.03 
   33200    85.058235   -475141.23   -462758.47 
   33300    85.404202   -475131.59   -462698.46 
   33400    84.868437   -475096.02   -462740.89 
   33500    84.801701    -475058.2   -462712.78 
   33600    84.743595   -475103.29   -462766.33 
   33700    84.662188   -475052.01   -462726.91 
   33800    85.070104   -475151.52   -462767.04 
   33900    84.805063   -475110.69   -462764.78 
   34000     84.86612   -475194.21   -462839.41 
   34100    84.966072   -475173.11   -462803.77 
   34200    85.584534   -475199.61   -462740.23 
   34300    84.927688   -475133.31   -462769.55 
   34400    85.126136   -475166.92   -462774.28 
   34500    85.074113   -475154.25   -462769.18 
   34600    85.159108   -475183.84    -462786.4 
   34700     84.96033   -475161.12   -462792.62 
   34800    84.267406   -475107.95   -462840.32 
   34900    85.477084   -475206.82   -462763.08 
   35000    84.857641   -475170.71   -462817.15 
   35100    84.954423   -475250.75    -462883.1 
   35200    85.034496   -475190.36   -462811.06 
   35300    84.676987   -475274.09   -462946.83 
   35400    85.376733   -475348.64   -462919.51 
   35500    85.028343   -475392.68   -463014.27 
   35600    85.204347   -475414.53    -463010.5 
   35700    84.863312   -475428.54   -463074.15 
   35800    84.969956   -475445.98   -463076.07 
   35900    84.976883   -475404.03   -463033.11 
   36000    85.260997   -475382.92   -462970.65 
   36100     84.91414   -475480.92   -463119.14 
   36200    84.704716    -475546.6    -463215.3 
   36300    85.792882   -475535.52   -463045.81 
   36400     85.67733   -475528.34   -463055.45 
   36500    84.506565   -475561.23   -463258.79 
   36600    85.493576      -475557   -463110.86 
   36700    84.370482   -475603.11   -463320.47 
   36800     84.79684   -475580.69   -463235.98 
   36900    85.241077   -475577.64   -463168.26 
   37000    85.202806   -475542.71   -463138.91 
   37100    85.338551   -475571.04   -463147.47 
   37200    84.649406   -475524.46   -463201.22 
   37300    84.835622   -475557.12   -463206.77 
   37400    84.791168   -475535.91   -463192.03 
   37500    84.996133   -475562.06   -463188.34 
   37600    85.140909   -475434.43   -463039.63 
   37700    84.734667   -475517.11   -463181.45 
   37800    85.166814   -475487.64   -463089.07 
   37900    85.458395   -475539.68   -463098.67 
   38000    84.877463    -475476.9   -463120.46 
   38100    84.924507   -475552.79    -463189.5 
   38200    84.618968   -475509.24   -463190.43 
   38300    85.093075    -475543.5   -463155.67 
   38400    85.085657   -475465.77   -463079.01 
   38500     84.80064   -475515.23   -463169.97 
   38600    84.860086   -475548.13   -463194.22 
   38700     85.37036   -475559.45   -463131.25 
   38800    85.111113   -475457.12   -463066.67 
   38900     85.01794   -475485.72   -463108.83 
   39000    85.137167   -475576.98   -463182.73 
   39100    84.653524   -475490.13   -463166.29 
   39200    85.611524   -475511.49   -463048.18 
   39300    85.535034   -475574.07    -463121.9 
   39400    84.753622   -475591.67   -463253.26 
   39500    84.384455    -475555.9   -463271.23 
   39600    85.180885   -475563.44   -463162.82 
   39700    85.111075    -475612.8   -463222.35 
   39800    84.822808   -475619.95   -463271.47 
   39900    85.223115   -475725.04   -463318.27 
   40000     84.88419   -475682.52   -463325.09 
   40100    85.003605   -475708.74   -463333.94 
   40200    84.755062   -475696.89   -463358.27 
   40300    85.128917   -475712.55    -463319.5 
   40400    85.362439   -475678.44   -463251.39 
   40500    85.374258   -475766.46    -463337.7 
   40600    84.921695   -475707.16   -463344.28 
   40700    85.075086   -475828.89   -463443.68 
   40800    84.553418   -475764.84   -463455.57 
   40900     85.24885   -475791.61    -463381.1 
   41000    84.833899   -475738.32   -463388.22 
   41100    84.366655   -475856.73   -463574.65 
   41200    85.183083   -475761.69   -463360.75 
   41300    85.291119   -475828.73   -463412.07 
   41400    84.715483   -475755.15   -463422.29 
   41500    85.064856   -475786.51   -463402.78 
   41600    85.407995   -475807.98    -463374.3 
   41700    85.063286   -475743.87   -463360.38 
   41800    85.039235   -475774.03   -463394.04 
   41900     85.17119   -475793.21   -463394.01 
   42000     85.39169   -475822.81   -463391.51 
   42100    85.078871   -475780.27   -463394.51 
   42200    85.246781   -475790.75   -463380.54 
   42300    85.420469   -475844.41   -463408.91 
   42400    84.824008   -475725.76    -463377.1 
   42500    85.057677   -475714.06   -463331.38 
   42600    85.267699   -475696.01   -463282.76 
   42700    85.518642    -475780.6   -463330.82 
   42800    84.936681   -475736.03   -463370.97 
   42900    85.516481   -475708.84   -463259.37 
   43000    85.217558   -475742.35    -463336.4 
   43100     84.58385   -475807.74   -463494.04 
   43200    84.961343   -475719.91   -463351.26 
   43300    85.223293   -475812.49    -463405.7 
   43400    85.091571   -475786.09   -463398.48 
   43500    85.452597   -475752.32   -463312.15 
   43600     84.88051   -475755.46   -463398.58 
   43700    84.914305   -475772.43   -463410.63 
   43800    85.051493   -475831.35   -463449.57 
   43900    84.795361   -475777.85   -463433.36 
   44000    84.710118   -475712.78    -463380.7 
   44100    84.868942   -475822.33   -463467.13 
   44200    84.835449    -475812.2   -463461.88 
   44300    84.865991   -475741.46   -463386.69 
   44400    85.141411   -475813.48   -463418.61 
   44500     84.57873   -475751.83   -463438.88 
   44600    84.607951   -475925.81    -463608.6 
   44700    85.637585   -475867.69   -463400.59 
   44800    84.462462   -475888.12   -463592.09 
   44900    84.973953   -475899.97   -463529.49 
   45000    84.878347   -475966.75   -463610.18 
   45100    84.755529   -475915.71   -463577.01 
   45200    85.389398    -475886.4   -463455.43 
   45300    84.351257   -475945.96   -463666.13 
   45400    85.394482   -475952.06   -463520.35 
   45500    84.915473   -475980.95   -463618.98 
   45600    84.606208   -475931.82   -463614.87 
   45700     85.39485   -476057.27   -463625.51 
   45800    85.301555   -476079.11   -463660.93 
   45900    85.067739   -476107.43   -463723.29 
   46000    84.944614   -476183.89   -463817.67 
   46100    85.259762   -476143.56   -463731.46 
   46200    85.180531    -476160.7   -463760.14 
   46300     84.98936   -476231.91   -463859.18 
   46400    85.006779   -476115.37    -463740.1 
   46500    85.167449   -476162.74   -463764.08 
   46600    85.114052   -476111.99    -463721.1 
   46700    85.025703   -476153.21   -463775.18 
   46800    84.453382   -476159.13   -463864.42 
   46900      84.6877   -476105.88   -463777.06 
   47000    84.841781   -476122.78   -463771.53 
   47100    85.307227   -476124.82   -463705.82 
   47200    85.056996   -476150.13   -463767.55 
   47300    84.843062   -476033.84    -463682.4 
   47400    85.240825    -476116.3   -463706.96 
   47500    84.579853   -476069.14   -463756.02 
   47600      84.5487   -476166.37   -463857.79 
   47700    85.210404   -476070.43   -463665.51 
   47800    85.280196   -476087.95   -463672.87 
   47900    85.535806   -476083.41   -463631.13 
   48000     85.31676    -476008.3    -463587.9 
   48100    84.925873   -475968.19    -463604.7 
   48200    85.128155   -475980.83    -463587.9 
   48300    85.110427   -476119.28   -463728.92 
   48400    84.992443   -476085.06   -463711.88 
   48500    84.949822   -476009.83   -463642.86 
   48600    85.660816   -475998.15   -463527.67 
   48700    85.169923   -476061.38   -463662.36 
   48800     84.48328   -475921.56    -463622.5 
   48900    84.706883   -475995.38   -463663.77 
   49000    84.987249   -476022.22    -463649.8 
   49100    85.194538   -476071.92   -463669.32 
   49200    84.859323   -476023.15   -463669.35 
   49300    85.155673   -476108.47   -463711.53 
   49400    85.463443   -476179.44   -463737.69 
   49500    85.212862   -476147.48   -463742.21 
   49600     84.96203   -476126.33   -463757.58 
   49700    85.047601   -476120.01    -463738.8 
   49800    84.801078   -476127.69   -463782.37 
   49900    84.937265   -476180.14   -463814.99 
   50000    84.850925   -476106.38    -463753.8 
   50100    84.752002    -476140.1   -463801.92 
   50200    84.447061   -476184.25   -463890.47 
   50300    84.590198    -476207.3   -463892.68 
   50400    85.343808   -476216.39   -463792.06 
   50500    84.524319   -476210.57   -463905.54 
   50600    84.620608   -476170.09   -463851.04 
   50700    84.985443   -476192.03   -463819.86 
   50800    85.227962   -476192.13   -463784.66 
   50900    84.817144   -476170.46    -463822.8 
   51000    84.726752    -476137.2    -463802.7 
   51100    85.003661   -476152.59   -463777.77 
   51200    84.643156   -476143.36   -463821.03 
   51300    84.906012   -476194.79   -463834.19 
   51400    85.189201   -476228.72   -463826.89 
   51500    84.822495   -476173.15   -463824.71 
   51600    85.072092   -476293.15   -463908.37 
   51700     84.79479   -476308.47   -463964.06 
   51800    85.061509    -476312.2   -463928.96 
   51900    85.531954   -476212.53   -463760.81 
   52000    84.844999   -476215.44   -463863.72 
   52100    84.570199   -476255.17   -463943.46 
   52200    84.825128   -476272.46   -463923.64 
   52300    84.737903   -476253.17   -463917.04 
   52400    85.158371   -476287.98   -463890.65 
   52500    85.328631   -476364.43   -463942.31 
   52600    85.497848   -476374.74   -463927.98 
   52700    84.970312   -476393.62   -464023.66 
   52800    85.207402   -476366.36   -463961.88 
   52900    85.001714   -476415.22   -464040.68 
   53000    84.870144   -476389.46   -464034.08 
   53100    85.383078   -476465.86   -464035.81 
   53200    85.136568   -476458.37   -464064.21 
   53300    85.299662   -476451.79   -464033.88 
   53400    85.047514   -476498.24   -464117.05 
   53500    84.366718   -476423.87   -464141.79 
   53600    84.867984   -476433.03   -464077.97 
   53700    84.976979   -476479.25   -464108.32 
   53800    85.726955    -476418.4   -463938.29 
   53900    84.879282   -476452.47   -464095.76 
   54000    84.739594   -476424.74   -464088.37 
   54100    84.569098   -476380.46   -464068.91 
   54200    84.809823   -476440.62   -464094.02 
   54300     84.57455   -476452.04   -464139.69 
   54400    84.640691   -476489.34   -464167.36 
   54500    84.661036   -476444.24   -464119.31 
   54600    85.043377   -476503.75   -464123.15 
   54700    84.792139   -476493.51   -464149.49 
   54800    84.630388   -476480.99   -464160.52 
   54900    85.406624    -476528.8   -464095.32 
   55000    84.754232    -476463.5      -464125 
   55100    84.925225   -476506.52   -464143.12 
   55200    84.497231   -476451.09   -464150.01 
   55300    85.039953   -476434.24   -464054.14 
   55400    84.770869   -476404.66   -464063.74 
   55500    84.487536    -476449.3   -464149.63 
   55600    84.230381   -476437.65   -464175.41 
   55700    84.960506   -476499.51   -464130.98 
   55800    85.251993   -476473.03   -464062.06 
   55900    84.765529    -476409.6   -464069.46 
   56000    85.100718   -476445.74    -464056.8 
   56100    85.186995   -476453.81   -464052.31 
   56200    84.956677   -476532.73   -464164.75 
   56300    84.970901   -476522.33   -464152.29 
   56400    84.745389   -476481.52    -464144.3 
   56500    84.928837   -476588.01   -464224.08 
   56600    84.603175   -476537.31   -464220.79 
   56700    84.896955   -476573.54   -464214.26 
   56800    84.559839   -476548.78   -464238.57 
   56900    85.575155   -476503.16   -464045.15 
   57000    84.705572    -476579.7   -464248.29 
   57100    84.473093   -476555.09   -464257.51 
   57200    84.685785   -476555.74    -464227.2 
   57300    84.720715   -476558.39   -464224.77 
   57400     84.99376   -476555.61   -464182.24 
   57500    85.206898   -476598.27   -464193.87 
   57600    84.863134   -476537.59   -464183.23 
   57700    85.225347   -476525.88   -464118.79 
   57800    84.478808   -476590.47   -464292.06 
   57900    85.180725   -476577.33   -464176.74 
   58000     85.03312   -476560.82   -464181.71 
   58100    85.396797   -476627.11   -464195.07 
   58200    84.676065   -476594.64   -464267.51 
   58300    84.723009   -476587.16   -464253.21 
   58400    84.807878   -476557.14   -464210.83 
   58500    84.906498   -476575.17    -464214.5 
   58600    84.907891   -476536.82   -464175.95 
   58700    84.808643   -476601.76   -464255.33 
   58800    85.271677   -476598.74   -464184.91 
   58900    85.423698   -476669.42   -464233.46 
   59000    84.827613   -476724.33   -464375.14 
   59100    84.952155   -476607.36   -464240.05 
   59200    85.005665   -476702.05   -464326.94 
   59300    85.026643   -476617.57   -464239.41 
   59400    85.625485   -476648.63   -464183.29 
   59500     84.96011   -476651.15   -464282.68 
   59600    84.790923   -476695.23   -464351.39 
   59700    85.706857   -476714.64   -464237.46 
   59800    85.425986   -476736.97   -464300.68 
   59900    84.463486   -476790.77   -464494.59 
   60000    84.704623   -476711.79   -464380.51 
   60100    84.900488   -476780.71   -464420.91 
   60200    85.122511   -476753.24   -464361.12 
   60300    84.853775   -476689.25   -464336.25 
   60400    85.601442   -476805.92   -464344.08 
   60500    85.181528   -476768.77   -464368.06 
   60600     85.06208   -476816.45   -464433.14 
   60700     85.32262   -476774.66   -464353.41 
   60800    84.730166   -476790.46   -464455.46 
   60900     84.60295   -476764.38    -464447.9 
   61000    85.026945   -476744.47   -464366.27 
   61100    84.919798   -476753.41   -464390.81 
   61200    85.172767   -476725.79   -464326.36 
   61300    85.273086   -476780.82   -464366.79 
   61400    84.836452    -476673.4   -464322.93 
   61500    84.943964   -476679.75   -464313.62 
   61600    85.119053   -476655.63   -464264.01 
   61700    84.840869   -476673.53   -464322.41 
   61800    85.068684   -476653.14   -464268.86 
   61900    85.113198   -476667.95   -464277.19 
   62000     85.01216   -476726.73   -464350.68 
   62100     84.98542   -476783.34   -464411.19 
   62200    84.632799   -476733.76   -464412.94 
   62300    84.974635   -476672.12   -464301.54 
   62400    85.396893   -476680.11   -464248.05 
   62500    84.687597   -476699.39   -464370.59 
   62600    84.848633   -476734.66   -464382.42 
   62700    84.965422   -476695.25      -464326 
   62800    85.248343   -476685.25   -464274.82 
   62900    85.268844   -476666.27   -464252.85 
   63000    84.315264   -476681.36   -464406.76 
   63100    85.783736    -476613.8   -464125.43 
   63200    85.489692   -476665.49   -464219.91 
   63300    85.278882   -476644.41   -464229.53 
   63400    84.775899   -476655.79   -464314.13 
   63500     85.30705   -476699.14   -464280.16 
   63600    85.002218   -476690.76   -464316.15 
   63700     84.44555   -476698.14   -464404.57 
   63800    84.660927   -476663.83   -464338.91 
   63900    84.884489    -476737.3   -464379.83 
   64000    84.748079   -476770.19   -464432.58 
   64100    84.503032   -476711.15   -464409.21 
   64200    84.663815   -476806.84    -464481.5 
   64300    84.813525   -476790.57   -464443.44 
   64400    85.023104   -476804.71   -464427.06 
   64500    85.140549   -476817.95   -464423.21 
   64600    85.199291   -476814.06   -464410.77 
   64700    84.619148   -476819.12   -464500.28 
   64800    84.454529    -476777.4   -464482.53 
   64900    85.367807    -476736.2   -464308.38 
   65000    85.437475   -476815.84   -464377.87 
   65100     85.45597   -476774.24   -464333.57 
   65200    85.103265   -476775.48   -464386.16 
   65300    85.013769   -476806.77   -464430.49 
   65400    85.262511   -476824.71   -464412.21 
   65500    85.041144   -476741.01   -464360.74 
   65600    85.281071   -476809.24   -464394.04 
   65700     84.90939   -476780.32   -464419.23 
   65800    85.064722   -476784.05   -464400.34 
   65900     84.94664   -476773.05   -464406.54 
   66000    84.865431   -476752.27   -464397.58 
   66100    85.279008   -476794.51   -464379.61 
   66200    84.944109   -476782.11   -464415.97 
   66300    85.163067   -476786.31   -464388.29 
   66400    85.040973   -476808.61   -464428.36 
   66500    85.150692   -476786.29   -464390.07 
   66600    84.686289   -476758.27   -464429.66 
   66700    84.407475   -476800.21   -464512.19 
   66800    85.517691   -476766.56   -464316.91 
   66900     84.85124   -476887.04   -464534.41 
   67000    85.198809   -476856.23   -464453.01 
   67100    84.991314   -476924.83   -464551.81 
   67200    84.821904   -476919.43   -464571.08 
   67300    85.363401   -476935.14   -464507.96 
   67400    84.947673   -476834.74   -464468.08 
   67500    84.514497    -476876.5    -464572.9 
   67600    85.033966   -476866.71   -464487.48 
   67700    84.658191      -476926   -464601.47 
   67800    85.121144   -476915.85   -464523.93 
   67900    85.370423    -476916.5   -464488.29 
   68000    84.596087   -476888.54   -464573.06 
   68100    85.066039    -476969.2    -464585.3 
   68200    84.879195   -476936.04   -464579.35 
   68300    85.027692   -476911.26   -464532.95 
   68400     85.66727   -476968.26   -464496.84 
   68500    85.563852   -476894.92   -464438.56 
   68600    85.391408   -476979.95   -464548.68 
   68700    85.121879   -476897.89   -464505.86 
   68800    84.470327   -476857.55   -464560.37 
   68900    84.894973   -476894.09    -464535.1 
   69000    84.791309   -476847.75   -464503.85 
   69100     84.84863   -476890.94   -464538.69 
   69200    84.449413   -476934.43   -464640.31 
   69300    84.913939   -476941.63   -464579.88 
   69400      84.4012   -476847.19   -464560.08 
   69500    85.510741   -476841.36   -464392.73 
   69600    85.696396   -476943.74   -464468.08 
   69700    85.381852   -476859.42   -464429.55 
   69800    85.528009   -476901.95    -464450.8 
   69900      85.5478   -476824.39   -464370.36 
   70000    84.569262   -476881.39   -464569.82 
   70100    84.711106   -476894.36   -464562.14 
   70200     84.83814   -476958.44   -464607.73 
   70300    84.970725   -476854.67   -464484.65 
   70400    85.295619   -476897.48   -464480.16 
   70500    85.448546   -476894.15   -464454.57 
   70600    85.125197   -476920.11    -464527.6 
   70700    85.275925   -476884.48   -464470.03 
   70800    84.909174   -476950.16    -464589.1 
   70900    85.406049   -476946.54   -464513.14 
   71000    85.705013   -476987.85   -464510.94 
   71100    84.616858   -476948.69   -464630.19 
   71200    84.552489   -477004.88   -464695.75 
   71300     84.08592   -476984.11    -464742.9 
   71400    85.218138   -476981.84    -464575.8 
   71500    84.995501   -476911.88   -464538.26 
   71600    85.297684   -476971.68   -464554.06 
   71700    85.377369   -476850.16   -464420.94 
   71800    84.928354   -476957.48   -464593.63 
   71900    84.732712   -476962.48   -464627.11 
   72000    85.078344   -477023.95   -464638.27 
   72100    84.627498    -476989.4   -464669.35 
   72200    85.579697   -477088.62   -464629.95 
   72300    84.785094   -477036.75   -464693.76 
   72400    84.958162   -476971.05   -464602.86 
   72500     84.30962   -476918.45   -464644.67 
   72600    84.566016   -476999.92   -464688.81 
   72700     84.95521   -477012.57   -464644.81 
   72800     85.06447   -477034.71   -464651.05 
   72900    85.455096   -477027.82   -464587.29 
   73000    85.222727   -476983.29   -464576.58 
   73100     84.97441   -477035.88   -464665.33 
   73200    85.265462   -477036.45   -464623.53 
   73300    84.812361   -476924.09   -464577.13 
   73400    84.961483   -476974.68   -464606.01 
   73500    84.824708   -476984.84   -464636.08 
   73600    85.398583   -476943.29   -464510.98 
   73700    85.217494   -476836.68   -464430.74 
   73800    85.074984   -476928.45   -464543.25 
   73900    85.092281   -476895.42    -464507.7 
   74000    84.801671   -476871.63   -464526.22 
   74100     85.08192   -476906.76   -464520.55 
   74200    85.214554   -476826.39   -464420.87 
   74300    85.266985   -476856.47   -464443.32 
   74400    85.018645    -476883.3   -464506.31 
   74500    85.309475    -476919.9   -464500.57 
   74600    85.430505   -476905.76   -464468.81 
   74700    84.933469   -476884.13   -464519.53 
   74800    84.957825   -476926.16   -464558.02 
   74900    85.129039   -476874.48   -464481.41 
   75000    85.036604   -476890.07   -464510.46 
   75100    84.464987   -476888.89    -464592.5 
   75200    85.407527   -476880.81   -464447.21 
   75300     85.14468    -476869.7   -464474.35 
   75400    84.859685   -476847.99   -464494.14 
   75500    84.845788    -476876.5   -464524.66 
   75600     85.28597   -476924.12   -464508.21 
   75700    84.850054   -476966.31   -464613.85 
   75800    84.847263   -476883.18   -464531.13 
   75900     84.52523    -476995.4   -464690.23 
   76000    84.808469   -477034.37   -464687.97 
   76100    84.647956   -477017.38   -464694.35 
   76200    84.512484   -477002.89   -464699.59 
   76300    84.465871   -477010.92    -464714.4 
   76400    84.584805   -476989.78   -464675.94 
   76500    84.789775   -477083.97    -464740.3 
   76600    85.387029   -477009.71   -464579.08 
   76700    85.508997   -477054.46   -464606.08 
   76800    85.198998   -477074.12   -464670.87 
   76900    84.843698   -477079.53      -464728 
   77000    85.044986   -477099.95   -464719.12 
   77100    85.319121    -477094.7   -464673.96 
   77200    84.604659   -477084.65   -464767.93 
   77300    84.824807   -477061.64   -464712.86 
   77400    84.750595   -477139.09   -464801.11 
   77500    85.053493   -477127.89   -464745.82 
   77600    85.088661   -477108.31   -464721.12 
   77700    85.628755   -477022.62    -464556.8 
   77800    85.094554   -477122.03   -464733.98 
   77900    84.660201   -477130.39   -464805.58 
   78000    84.906655   -477114.88   -464754.19 
   78100    84.945096   -477102.44   -464736.15 
   78200    85.161717   -477103.22    -464705.4 
   78300    85.116248   -477113.83   -464722.63 
   78400     85.26127   -477144.54   -464732.22 
   78500    85.566842   -477109.54   -464652.74 
   78600    85.017561   -477092.39   -464715.55 
   78700    84.586123    -477094.1   -464780.07 
   78800    84.998997    -477034.3   -464660.17 
   78900    84.946743    -477068.3   -464701.77 
   79000    84.916314   -477077.83   -464715.73 
   79100    84.525832   -477027.96    -464722.7 
   79200    85.414381   -477066.37   -464631.76 
   79300    84.858076   -476990.57   -464636.95 
   79400     85.30007   -477065.89   -464647.93 
   79500    85.040464    -477067.2   -464687.03 
   79600    85.281405   -477088.51   -464673.26 
   79700    85.003703    -477115.6   -464740.78 
   79800    84.917822   -477186.51   -464824.19 
   79900    84.812167   -477162.16   -464815.23 
   80000    85.179752   -477236.78   -464836.33 
   80100    85.363087    -477224.3   -464797.16 
   80200    85.172384   -477232.95   -464833.57 
   80300    85.079605   -477237.14   -464851.27 
   80400    85.090437   -477315.59   -464928.15 
   80500    85.415023   -477218.75   -464784.05 
   80600    84.896186   -477287.51   -464928.34 
   80700     85.02461   -477266.17    -464888.3 
   80800    84.481287   -477265.31   -464966.54 
   80900     85.47014   -477335.11   -464892.39 
   81000    84.872754   -477227.82   -464872.06 
   81100    84.569429   -477304.66   -464993.06 
   81200    84.945688   -477276.16   -464909.78 
   81300    84.950464   -477169.07      -464802 
   81400    85.148545   -477201.56   -464805.65 
   81500    85.366851   -477240.35   -464812.66 
   81600    84.996372   -477162.09   -464788.34 
   81700    84.831307   -477150.78   -464801.06 
   81800    84.696688   -477158.71   -464828.58 
   81900    85.238318   -477175.98   -464767.01 
   82000    85.486717   -477183.21   -464738.07 
   82100    84.962712   -477171.92   -464803.07 
   82200    84.976867   -477254.32   -464883.41 
   82300    85.109681   -477204.45    -464814.2 
   82400    84.944107   -477254.29   -464888.15 
   82500    84.806996   -477282.92   -464936.74 
   82600    84.510717   -477170.35    -464867.3 
   82700    84.697842   -477184.44   -464854.15 
   82800    84.895455   -477268.99   -464909.93 
   82900    84.552036   -477162.37    -464853.3 
   83000     84.92301   -477250.76   -464887.69 
   83100    84.441231   -477157.29   -464864.36 
   83200    84.836741   -477141.49   -464790.98 
   83300    84.900963    -477159.2   -464799.33 
   83400     85.26047   -477141.76   -464729.56 
   83500    84.509852   -477249.22   -464946.29 
   83600    84.715944   -477202.03    -464869.1 
   83700    84.651164      -477137   -464813.51 
   83800    85.444261   -477185.75    -464746.8 
   83900      85.0637   -477217.06    -464833.5 
   84000    85.024171   -477322.39   -464944.59 
   84100    84.431702   -477246.77   -464955.22 
   84200    84.628337    -477311.9   -464991.72 
   84300    84.958852   -477349.41   -464981.12 
   84400    85.284373   -477368.68      -464953 
   84500    85.240462   -477320.31   -464911.02 
   84600    85.177319   -477235.58   -464835.49 
   84700    83.926965    -477280.4   -465062.34 
   84800    85.492445   -477242.25   -464796.28 
   84900    85.058767   -477307.69   -464924.86 
   85000    85.048251   -477250.67   -464869.36 
   85100     85.05334   -477272.76   -464890.71 
   85200    84.930679   -477293.02   -464928.83 
   85300    85.152642   -477251.72   -464855.21 
   85400    85.324877   -477306.57   -464884.99 
   85500     84.51172   -477263.88   -464960.68 
   85600    84.335829   -477253.72   -464976.12 
   85700    85.284271   -477236.32   -464820.66 
   85800    85.074393   -477182.46   -464797.35 
   85900    85.280202   -477215.21   -464800.13 
   86000    85.169139   -477219.01    -464820.1 
   86100    84.796751   -477227.55   -464882.85 
   86200     85.82899   -477251.68   -464756.71 
   86300    84.775773   -477268.24    -464926.6 
   86400    84.588242   -477283.41   -464969.07 
   86500    85.053607   -477192.32   -464810.24 
   86600    85.169751   -477156.58   -464757.59 
   86700    85.201854   -477187.14   -464783.48 
   86800     85.39504   -477171.16   -464739.36 
   86900    85.062467   -477200.25   -464816.87 
   87000    84.702839   -477235.69   -464904.67 
   87100     85.14775   -477141.31   -464745.52 
   87200    85.385546   -477160.88   -464730.47 
   87300    85.559844   -477134.05   -464678.27 
   87400    85.482615   -477226.81   -464782.27 
   87500    84.884875   -477218.61   -464861.09 
   87600    84.697376   -477227.76   -464897.54 
   87700    84.731793   -477206.46   -464871.22 
   87800    84.768977    -477214.5   -464873.85 
   87900    84.977801   -477266.38   -464895.33 
   88000    84.112846   -477242.82   -464997.69 
   88100    84.830452   -477259.59      -464910 
   88200    84.639949   -477258.44   -464936.58 
   88300    85.083698    -477261.5   -464875.04 
   88400    85.418941   -477253.68   -464818.41 
   88500    84.214381   -477320.94   -465061.03 
   88600    84.742225   -477279.16   -464942.41 
   88700    85.094735   -477163.94   -464775.86 
   88800    85.074344   -477245.87   -464860.77 
   88900    85.105847   -477270.45   -464880.76 
   89000    84.642891   -477224.48   -464902.18 
   89100    85.111488   -477306.84   -464916.33 
   89200    84.884732      -477180    -464822.5 
   89300    85.147971   -477199.03   -464803.21 
   89400    85.028264   -477236.62   -464858.22 
   89500    85.143057   -477092.55   -464697.44 
   89600    84.706125   -477137.03   -464805.53 
   89700    85.633199   -477173.72   -464707.26 
   89800    84.910373   -477208.73   -464847.49 
   89900    84.706488   -477134.05   -464802.49 
   90000    84.562289    -477180.5   -464869.94 
   90100    85.179273   -477214.46   -464814.08 
   90200    84.391459   -477172.26   -464886.57 
   90300     84.92923   -477214.23   -464850.25 
   90400    85.298789   -477230.71   -464812.93 
   90500    84.702838   -477108.06   -464777.04 
   90600    84.894554   -477257.85   -464898.92 
   90700    84.951751    -477191.2   -464823.95 
   90800    85.086633   -477219.97   -464833.07 
   90900    84.980037   -477256.83   -464885.46 
   91000    85.324128    -477211.5   -464790.03 
   91100    85.554611   -477299.76   -464844.74 
   91200    85.543479   -477143.21   -464689.81 
   91300    84.668677   -477331.29   -465005.24 
   91400    84.468723   -477263.95   -464967.01 
   91500     84.84198   -477349.09   -464997.81 
   91600    85.029441   -477273.52   -464894.96 
   91700    85.568822   -477369.78   -464912.69 
   91800    85.023843   -477290.19   -464912.44 
   91900    84.959952   -477287.78   -464919.33 
   92000    85.285488   -477238.25    -464822.4 
   92100    85.350939   -477325.15   -464899.78 
   92200    84.841584   -477270.53   -464919.31 
   92300    84.832637   -477235.84   -464885.93 
   92400    84.444715    -477272.8   -464979.36 
   92500    84.870159   -477225.88    -464870.5 
   92600    84.949786   -477312.75   -464945.78 
   92700    84.822934   -477315.39   -464966.89 
   92800    85.476481   -477329.53   -464885.88 
   92900    85.230139   -477222.19    -464814.4 
   93000    85.006386   -477191.42   -464816.21 
   93100    84.778294   -477296.49   -464954.48 
   93200    84.841917   -477315.11   -464963.84 
   93300    85.744006   -477257.27   -464774.68 
   93400    85.812384   -477347.22   -464854.67 
   93500    84.966925   -477230.42   -464860.95 
   93600    85.240609   -477199.41    -464790.1 
   93700    84.920749    -477260.7   -464897.96 
   93800    84.976316   -477233.76   -464862.93 
   93900    85.099349   -477230.69   -464841.94 
   94000    85.293465   -477255.49   -464838.49 
   94100    84.780008   -477243.02   -464900.77 
   94200    84.660546   -477254.87   -464930.01 
   94300    84.634848   -477332.81   -465011.69 
   94400    85.097459   -477324.38   -464935.91 
   94500    85.118371   -477262.79   -464871.28 
   94600    84.727773   -477245.87   -464911.22 
   94700    84.687854   -477290.09   -464961.25 
   94800    84.787644   -477318.88   -464975.51 
   94900    85.044552   -477344.33   -464963.57 
   95000    85.060105   -477291.17   -464908.14 
   95100    84.659037   -477274.49   -464949.85 
   95200    84.712312   -477322.84   -464990.44 
   95300     85.20534    -477313.8   -464909.62 
   95400    85.366652   -477341.53   -464913.88 
   95500     85.59893   -477357.91   -464896.44 
   95600    85.120431   -477319.87   -464928.05 
   95700     84.85959    -477349.2   -464995.36 
   95800    85.079105    -477354.6    -464968.8 
   95900    84.898354   -477399.11   -465039.63 
   96000     84.92578   -477483.76   -465120.28 
   96100    84.985939   -477466.59   -465094.35 
   96200    85.098819   -477483.13   -465094.46 
   96300     84.98561   -477464.57   -465092.38 
   96400    85.042137   -477471.29   -465090.87 
   96500    84.785434    -477444.4   -465101.35 
   96600    84.994933   -477452.78   -465079.24 
   96700    85.160079   -477475.72   -465078.13 
   96800    84.871483   -477429.43   -465073.86 
   96900    84.376561   -477427.59   -465144.07 
   97000    85.151137    -477520.4   -465124.11 
   97100    85.294495   -477467.86   -465050.71 
   97200    84.677878   -477443.13   -465115.74 
   97300    85.307284   -477446.57   -465027.55 
   97400    85.270394   -477422.45   -465008.81 
   97500    85.283106   -477418.02   -465002.52 
   97600    85.238208   -477406.59   -464997.63 
   97700    85.091776   -477369.09   -464981.45 
   97800    85.176684   -477357.93   -464957.93 
   97900    85.049949   -477447.56   -465066.01 
   98000    84.705891   -477412.45   -465080.98 
   98100    84.486534    -477418.8   -465119.27 
   98200    85.169513   -477318.03   -464919.07 
   98300    85.100461   -477301.74   -464912.83 
   98400     85.02548   -477358.58   -464980.59 
   98500    85.127484   -477192.29   -464799.45 
   98600    84.633947   -477320.05   -464999.05 
   98700    85.254571   -477331.78   -464920.44 
   98800    85.309884   -477311.13   -464891.74 
   98900     85.05408   -477301.52   -464919.37 
   99000      84.7879   -477326.47   -464983.07 
   99100    85.135809   -477298.52   -464904.47 
   99200    85.102437   -477289.64   -464900.45 
   99300    84.913274   -477298.51   -464936.86 
   99400    84.722007   -477231.64   -464897.83 
   99500    84.852036   -477260.33   -464907.59 
   99600    84.792741   -477325.11      -464981 
   99700    84.974025   -477275.78   -464905.28 
   99800     84.68669   -477285.89   -464957.22 
   99900    85.182778   -477268.97   -464868.08 
  100000    85.047084   -477293.33    -464912.2 
  100100    85.095055    -477337.5   -464949.38 
  100200    85.222297    -477335.6   -464928.96 
  100300    85.137193   -477329.62   -464935.36 
  100400    85.434157   -477346.78    -464909.3 
  100500    84.984247   -477290.55   -464918.56 
  100600    85.119199   -477337.06   -464945.43 
  100700    84.920895   -477358.68   -464995.91 
  100800    84.915059   -477289.73   -464927.82 
  100900    85.659469   -477280.25   -464809.96 
  101000    85.048655    -477240.7   -464859.34 
  101100    85.310847    -477316.2   -464896.67 
  101200    85.214766   -477368.77   -464963.23 
  101300    85.402366   -477317.86      -464885 
  101400    85.078846   -477314.76      -464929 
  101500    84.992212   -477387.24   -465014.09 
  101600    84.989883   -477372.17   -464999.36 
  101700    84.407042   -477380.38   -465092.42 
  101800    84.824236    -477480.8    -465132.1 
  101900    85.288835   -477413.38   -464997.05 
  102000     84.58161   -477403.87    -465090.5 
  102100    84.898422   -477437.72   -465078.23 
  102200    84.503569   -477451.96   -465149.95 
  102300    85.075708   -477476.84   -465091.54 
  102400    85.787999   -477470.18   -464981.18 
  102500    84.899064    -477558.1   -465198.52 
  102600    85.485066   -477499.73   -465054.84 
  102700    84.770316   -477504.23   -465163.39 
  102800    85.561212   -477542.67   -465086.69 
  102900    85.240029   -477526.11   -465116.88 
  103000     85.14228   -477490.57   -465095.58 
  103100    85.128665   -477515.24   -465122.22 
  103200    84.920377   -477548.04   -465185.35 
  103300    84.946869   -477544.43   -465177.88 
  103400    85.262082   -477620.14   -465207.71 
  103500    85.106847   -477655.42   -465265.58 
  103600    84.304663   -477594.88   -465321.82 
  103700    84.837805   -477640.13   -465289.46 
  103800    85.188197   -477640.51   -465238.83 
  103900    85.200828   -477661.59   -465258.07 
  104000    84.644183   -477626.56   -465304.07 
  104100     84.39032   -477599.17   -465313.65 
  104200    84.698504   -477575.92   -465245.53 
  104300    84.969323   -477601.16   -465231.34 
  104400    84.613139   -477531.31   -465213.35 
  104500    85.260335    -477599.6   -465187.42 
  104600    85.471933   -477536.25   -465093.26 
  104700    84.750056   -477679.92   -465342.03 
  104800    84.650313   -477658.68    -465335.3 
  104900    84.428048   -477624.24   -465333.23 
  105000    85.254422   -477622.07   -465210.75 
  105100    84.976987    -477658.6   -465287.67 
  105200    84.778684   -477598.75   -465256.68 
  105300    85.606933   -477601.33   -465138.69 
  105400    84.995872   -477583.82   -465210.13 
  105500     84.92891   -477637.06   -465273.13 
  105600    85.149728   -477646.65   -465250.58 
  105700    84.708011   -477593.68   -465261.91 
  105800    84.904659   -477573.41      -465213 
  105900    85.479358   -477642.82   -465198.76 
  106000    84.923498   -477600.14      -465237 
  106100    85.416159    -477606.7   -465171.83 
  106200    85.261352   -477584.54   -465172.21 
  106300    84.698411   -477593.09   -465262.71 
  106400    84.793335   -477663.02   -465318.82 
  106500     85.48793   -477570.89   -465125.58 
  106600    85.751367   -477581.22   -465097.55 
  106700    84.952499   -477534.51   -465167.15 
  106800    86.001621   -477537.53   -465017.43 
  106900    84.969295   -477654.24   -465284.42 
  107000    85.050048   -477617.11   -465235.54 
  107100    84.914388   -477543.53   -465181.71 
  107200    85.135046   -477547.53   -465153.59 
  107300    84.975374   -477592.52   -465221.83 
  107400    84.935542    -477521.2    -465156.3 
  107500    84.992863   -477555.55   -465182.31 
  107600    85.399525   -477527.04   -465094.59 
  107700    85.183561   -477494.42   -465093.41 
  107800    85.194359   -477578.91   -465176.33 
  107900    85.445056   -477559.27   -465120.19 
  108000    85.162092    -477476.9   -465079.02 
  108100     84.81152   -477498.18   -465151.33 
  108200    84.514309   -477508.73   -465205.16 
  108300    85.163925   -477583.82   -465185.68 
  108400    85.193447   -477582.03   -465179.59 
  108500    85.149593   -477611.99   -465215.93 
  108600    84.269065   -477522.72   -465254.85 
  108700    84.530118   -477609.52   -465303.65 
  108800    84.995298   -477646.57   -465272.97 
  108900    85.062266   -477612.69   -465229.35 
  109000    84.438235    -477658.7    -465366.2 
  109100    84.356139   -477674.54   -465393.99 
  109200    85.309541   -477664.37   -465245.03 
  109300    84.764976   -477684.26   -465344.19 
  109400    85.050354   -477618.17   -465236.55 
  109500    85.110325   -477655.37   -465265.03 
  109600    85.210857    -477624.5   -465219.52 
  109700    85.304858   -477608.43   -465189.77 
  109800    84.207767   -477722.27   -465463.32 
  109900     85.40693   -477585.13    -465151.6 
  110000    85.207911   -477590.84   -465186.29 
  110100    84.837775   -477576.69   -465226.03 
  110200    85.044633    -477561.1   -465180.32 
  110300    85.050922   -477677.42   -465295.73 
  110400    85.186877   -477646.13   -465244.64 
  110500    84.870568   -477728.86   -465373.42 
  110600    84.911367   -477673.45   -465312.07 
  110700    85.233211   -477730.61   -465322.38 
  110800    84.702448   -477636.92   -465305.95 
  110900    84.956267   -477732.45   -465364.54 
  111000    84.894355   -477808.26   -465449.36 
  111100    84.514727   -477767.98   -465464.35 
  111200    84.668594   -477793.83   -465467.79 
  111300    84.803639   -477760.07   -465414.37 
  111400    85.200692   -477783.48   -465379.98 
  111500    84.514886   -477843.34   -465539.68 
  111600    84.869073   -477732.75   -465377.53 
  111700    85.096167   -477749.93   -465361.65 
  111800    84.774959   -477695.19   -465353.67 
  111900    84.782166   -477702.69   -465360.12 
  112000    84.818168   -477761.49   -465413.68 
  112100    85.264987   -477725.12   -465312.26 
  112200    84.760102   -477728.52   -465389.16 
  112300    84.679121   -477723.45   -465395.88 
  112400     84.67097   -477772.36   -465445.98 
  112500     84.81562   -477733.59   -465386.15 
  112600    85.064025    -477683.4    -465299.8 
  112700    85.228358   -477709.27   -465301.75 
  112800    84.976688   -477631.22   -465260.33 
  112900    84.762606   -477657.42    -465317.7 
  113000     85.93458   -477666.49   -465156.15 
  113100    85.378787   -477680.54   -465251.11 
  113200    84.983813   -477677.57   -465305.65 
  113300     84.77344    -477640.3      -465299 
  113400    84.693983   -477617.13    -465287.4 
  113500     85.18319   -477502.78   -465101.83 
  113600    85.257973   -477582.49   -465170.66 
  113700    84.767969   -477596.01   -465255.51 
  113800    84.620042      -477554   -465235.03 
  113900    85.182313   -477539.74   -465138.92 
  114000    84.961154   -477563.46   -465194.83 
  114100    84.742249   -477536.26    -465199.5 
  114200    85.301262   -477557.84    -465139.7 
  114300    85.546718   -477511.52   -465057.65 
  114400    84.816548   -477531.57   -465183.99 
  114500     84.92174   -477588.73   -465225.84 
  114600     84.82453   -477510.87   -465162.13 
  114700    84.531383   -477609.49   -465303.43 
  114800     85.39867    -477597.9   -465165.58 
  114900    85.219758   -477669.79   -465263.52 
  115000     85.15636   -477652.92   -465255.87 
  115100    85.409464   -477647.52   -465213.63 
  115200     85.33488   -477590.67   -465167.63 
  115300    85.235913   -477691.39   -465282.76 
  115400    85.145544   -477675.61   -465280.14 
  115500     85.24129   -477788.15   -465378.74 
  115600    84.748433   -477733.93   -465396.27 
  115700    84.650928   -477715.71   -465392.25 
  115800    84.990952   -477875.45   -465502.48 
  115900    85.134232   -477777.32    -465383.5 
  116000    85.062957   -477776.14   -465392.69 
  116100    85.211628    -477763.4   -465358.31 
  116200    84.503235   -477744.44   -465442.48 
  116300    84.586537   -477837.33   -465523.24 
  116400    85.075119   -477833.55   -465448.34 
  116500    85.748765   -477864.49    -465381.2 
  116600    84.993471   -477822.24   -465448.91 
  116700    85.007375   -477847.71   -465472.35 
  116800    84.964432   -477832.67   -465463.57 
  116900     84.88481   -477737.96   -465380.45 
  117000    85.097553   -477823.43   -465434.95 
  117100    85.326519   -477784.11    -465362.3 
  117200    84.757761   -477695.77   -465356.75 
  117300    84.881512   -477724.53    -465367.5 
  117400    84.815725   -477729.58   -465382.12 
  117500    84.896535   -477801.58   -465442.36 
  117600    84.500275   -477777.28   -465475.74 
  117700    85.541022   -477750.99   -465297.94 
  117800     84.64235   -477788.04   -465465.83 
  117900     85.03493   -477793.59   -465414.23 
  118000     85.41794   -477802.38   -465367.26 
  118100     85.54445   -477736.02   -465282.48 
  118200    84.935037   -477718.56   -465353.73 
  118300    84.722368   -477708.41   -465374.55 
  118400    84.463191   -477724.11   -465427.98 
  118500    85.081495    -477747.5   -465361.35 
  118600    85.289669   -477769.99   -465353.54 
  118700    85.302276   -477787.23   -465368.94 
  118800    84.962902    -477771.7   -465402.82 
  118900    84.525201   -477803.69   -465498.53 
  119000    84.866263   -477777.87   -465423.05 
  119100    84.387816   -477761.18   -465476.02 
  119200    85.100419   -477864.78   -465475.88 
  119300    85.705728   -477815.49   -465338.47 
  119400    85.070623   -477898.68   -465514.12 
  119500    84.959316   -477877.12   -465508.76 
  119600    85.044491   -477876.75   -465495.99 
  119700    85.289907   -477917.73   -465501.24 
  119800    85.440068   -477954.69   -465516.34 
  119900    84.450554   -477930.38   -465636.09 
  120000    84.787839   -477984.66   -465641.26 
  120100    84.429655   -477946.25      -465655 
  120200    84.527035   -477963.84   -465658.41 
  120300     84.93599   -478012.65   -465647.69 
  120400    85.008093   -477987.26    -465611.8 
  120500    85.004147   -477987.25   -465612.36 
  120600    85.207063   -477953.61   -465549.19 
  120700    85.267384   -477941.34   -465528.14 
  120800    85.006434   -477937.51   -465562.29 
  120900    85.074886   -477990.85   -465605.67 
  121000    85.428548   -477963.04   -465526.37 
  121100    85.102834   -477879.77   -465490.52 
  121200     85.49281   -477884.13    -465438.1 
  121300    85.566484   -477922.13   -465465.38 
  121400    85.665267   -477938.58   -465467.45 
  121500    85.108611   -477879.52   -465489.43 
  121600    84.886062   -477865.04   -465507.35 
  121700    85.124351   -477871.47   -465479.09 
  121800    84.897276   -477849.12   -465489.79 
  121900    85.226977   -477843.44   -465436.11 
  122000    85.022511   -477786.59   -465409.03 
  122100    85.231305   -477768.11   -465360.15 
  122200    85.097162   -477756.96   -465368.53 
  122300    85.234195   -477817.55   -465409.17 
  122400    84.957757   -477827.64   -465459.51 
  122500    84.802541   -477788.19   -465442.66 
  122600    84.990829   -477806.44   -465433.49 
  122700    84.557383   -477806.73   -465496.88 
  122800    85.017737   -477797.73   -465420.86 
  122900    84.791134   -477818.37   -465474.49 
  123000     85.48133   -477852.26   -465407.91 
  123100    85.241994   -477793.68   -465384.17 
  123200    85.515692   -477923.15   -465473.79 
  123300    84.948515   -477889.87   -465523.08 
  123400     85.18118   -477842.78   -465442.12 
  123500    84.707329   -477903.14   -465571.47 
  123600    85.107022   -477941.59   -465551.72 
  123700    85.719049   -477928.15   -465449.19 
  123800    84.457903   -477937.32   -465641.96 
  123900     84.95417   -477940.06   -465572.45 
  124000    85.297273   -477955.66    -465538.1 
  124100    84.849038   -478027.08   -465674.78 
  124200    85.132717   -478012.94   -465619.34 
  124300    85.230318   -478014.91    -465607.1 
  124400    84.902866   -478124.59   -465764.45 
  124500    84.949179   -478037.73   -465670.84 
  124600    84.400366   -478077.97   -465790.98 
  124700    84.430307   -478106.69   -465815.34 
  124800    85.237143   -478126.04   -465717.24 
  124900    85.113263   -478110.78   -465720.01 
  125000    85.135666   -478052.68   -465658.65 
  125100    84.627419   -478053.66   -465733.62 
  125200    84.425631   -478152.27    -465861.6 
  125300    85.022621   -478203.41   -465825.83 
  125400    84.758135    -478152.2   -465813.13 
  125500    84.766833   -478152.85   -465812.51 
  125600    84.855635   -478133.97   -465780.71 
  125700    84.877462   -478117.05   -465760.61 
  125800    85.063455    -478098.8   -465715.28 
  125900    85.213014   -478055.86   -465650.57 
  126000    85.351165   -478135.23   -465709.82 
  126100    85.229774   -478075.09   -465667.36 
  126200    85.416328   -478130.03   -465695.14 
  126300     85.03576   -478068.92   -465689.43 
  126400    84.521848   -478096.57   -465791.89 
  126500    85.345504   -478102.48    -465677.9 
  126600    85.268209   -478064.11   -465650.79 
  126700    85.097275    -478184.8   -465796.36 
  126800    85.003664   -478180.03   -465805.21 
  126900    85.579247   -478126.66   -465668.05 
  127000    85.153207   -478119.24   -465722.65 
  127100     84.87864   -478164.95   -465808.33 
  127200    85.197496   -478074.75   -465671.72 
  127300    84.226232   -478099.15   -465837.51 
  127400    84.741068   -478087.99    -465751.4 
  127500    85.143195   -478044.26   -465649.13 
  127600    84.859899   -478071.17   -465717.29 
  127700    85.331519    -478048.5   -465625.96 
  127800    85.049976    -478079.9   -465698.34 
  127900    85.330155   -478129.48   -465707.14 
  128000    84.640557   -478077.19   -465755.23 
  128100    85.162901   -478152.36   -465754.36 
  128200    84.678299   -478180.61   -465853.16 
  128300    84.938699   -478219.58   -465854.22 
  128400    84.699775   -478221.26   -465890.69 
  128500    85.521026   -478204.11   -465753.97 
  128600    84.801825   -478169.36   -465823.93 
  128700    84.881668   -478143.87   -465786.82 
  128800    84.898905   -478213.41   -465853.84 
  128900    85.056372   -478189.37   -465806.88 
  129000    85.188119    -478175.8   -465774.13 
  129100    85.166959   -478155.58   -465756.99 
  129200     85.10414   -478176.79   -465787.35 
  129300    85.223587   -478247.09   -465840.26 
  129400    85.140809   -478142.77   -465747.99 
  129500    84.846791   -478183.99   -465832.01 
  129600    84.855877   -478214.84   -465861.54 
  129700    85.842292   -478164.52   -465667.62 
  129800    84.549301   -478197.82   -465889.15 
  129900    84.987507   -478170.48   -465798.02 
  130000    84.599108   -478124.42    -465808.5 
  130100    84.694387   -478151.55   -465821.76 
  130200    84.636965   -478121.37   -465799.93 
  130300    85.122111   -478251.99   -465859.93 
  130400    85.105615   -478183.35   -465793.69 
  130500    85.137673   -478238.64   -465844.32 
  130600     84.86146   -478177.86   -465823.75 
  130700     85.19882   -478156.14   -465752.91 
  130800    84.843833   -478173.71   -465822.16 
  130900    85.203488   -478238.56   -465834.66 
  131000    84.897854   -478148.78   -465789.37 
  131100    84.860396   -478158.68   -465804.72 
  131200    85.004796   -478164.05   -465789.07 
  131300    85.150305    -478225.8   -465829.64 
  131400    84.924586   -478207.54   -465844.24 
  131500    85.430259   -478148.07   -465711.15 
  131600    84.973146   -478253.44   -465883.07 
  131700      84.3216   -478262.45   -465986.93 
  131800    85.089812    -478275.8   -465888.44 
  131900    84.790772   -478282.84   -465939.02 
  132000    84.326398   -478342.06   -466065.85 
  132100    84.678178      -478333   -466005.57 
  132200    85.481233   -478290.45   -465846.11 
  132300    85.300339    -478394.4   -465976.39 
  132400    84.808306   -478316.69   -465970.31 
  132500    84.762511   -478361.51    -466021.8 
  132600    85.234541   -478336.91   -465928.48 
  132700    84.919886   -478281.17   -465918.55 
  132800    84.777593   -478288.12   -465946.21 
  132900    84.594056   -478293.67   -465978.49 
  133000    85.034046   -478323.19   -465943.95 
  133100    85.051552   -478274.21   -465892.43 
  133200    84.346423   -478326.87   -466047.74 
  133300     84.91727   -478324.34    -465962.1 
  133400    84.942015    -478298.3   -465932.46 
  133500    84.976547   -478290.69   -465919.82 
  133600       84.808    -478309.4   -465963.07 
  133700    84.770601   -478269.23   -465928.34 
  133800    85.683628   -478338.91   -465865.11 
  133900     85.02143   -478242.36   -465864.96 
  134000    84.881752   -478342.54   -465985.47 
  134100    85.154039    -478268.8    -465872.1 
  134200    84.868235   -478326.15   -465971.05 
  134300    84.978578   -478297.38   -465926.22 
  134400    85.300526   -478297.28   -465879.24 
  134500    85.315131   -478292.42   -465872.26 
  134600    84.842075   -478303.86   -465952.57 
  134700    85.504592   -478283.21   -465835.47 
  134800    85.402203   -478293.37   -465860.54 
  134900    84.865215   -478224.81   -465870.15 
  135000    84.958015   -478283.56   -465915.39 
  135100    85.004354   -478237.68   -465862.77 
  135200    85.035718   -478239.88    -465860.4 
  135300    85.242531   -478226.83   -465817.24 
  135400    85.287902   -478240.18   -465823.99 
  135500    84.807114   -478276.51    -465930.3 
  135600    84.452678   -478232.71   -465938.11 
  135700    84.543361   -478326.12   -466018.31 
  135800    85.484032   -478325.57   -465880.82 
  135900     84.15814   -478259.87   -466008.15 
  136000    85.039041   -478221.82   -465841.86 
  136100    85.381749   -478258.77   -465828.91 
  136200    84.787352   -478316.57   -465973.25 
  136300    85.067555    -478303.5   -465919.38 
  136400    85.050785   -478303.17   -465921.49 
  136500    85.248616   -478208.69   -465798.21 
  136600    84.955307   -478247.83   -465880.05 
  136700    84.592945    -478231.2   -465916.18 
  136800    85.358157    -478262.6   -465836.17 
  136900    85.002735   -478300.45   -465925.77 
  137000    85.339289   -478310.29   -465886.62 
  137100    85.178029   -478326.78   -465926.59 
  137200    85.015227   -478349.23   -465972.73 
  137300     84.78476   -478354.62   -466011.67 
  137400     84.89469   -478408.15    -466049.2 
  137500    84.498427   -478374.41   -466073.15 
  137600    85.034473   -478354.62   -465975.32 
  137700    85.095831   -478415.91   -466027.68 
  137800    85.213032   -478410.78   -466005.48 
  137900    84.948611   -478386.53   -466019.73 
  138000    85.489257   -478435.99   -465990.48 
  138100    85.383723   -478413.95   -465983.81 
  138200    84.567144   -478390.16    -466078.9 
  138300    85.031895   -478481.67   -466102.74 
  138400    84.953238   -478426.22   -466058.75 
  138500    84.637959   -478391.71   -466070.13 
  138600     85.58712   -478432.83   -465973.08 
  138700    85.133135   -478471.69   -466078.03 
  138800    84.767438   -478393.66   -466053.24 
  138900    85.054055   -478494.82   -466112.67 
  139000    84.848474   -478491.65   -466139.43 
  139100    85.258045   -478417.44   -466005.59 
  139200    84.603505    -478438.8   -466122.24 
  139300    85.098613   -478469.39   -466080.75 
  139400    85.271556    -478413.1   -465999.28 
  139500    84.934307   -478390.57   -466025.85 
  139600    84.768902   -478416.32   -466075.68 
  139700    85.006262   -478418.51   -466043.31 
  139800    84.997814   -478451.02   -466077.06 
  139900    84.691541   -478488.38   -466159.01 
  140000    84.968747   -478502.44   -466132.71 
  140100    85.430987   -478462.39   -466025.37 
  140200    85.322114   -478473.07   -466051.89 
  140300    84.834013   -478550.38   -466200.27 
  140400    84.881549   -478538.83   -466181.79 
  140500    85.027491   -478482.64   -466104.35 
  140600    85.383898   -478534.47    -466104.3 
  140700    85.149178   -478492.28   -466096.28 
  140800    84.996993   -478470.17   -466096.32 
  140900    85.226353   -478518.51   -466111.27 
  141000    85.400375   -478540.26   -466107.69 
  141100    84.992399   -478542.56   -466169.38 
  141200    84.664595   -478514.42   -466188.96 
  141300    84.791183   -478549.22   -466205.34 
  141400    84.906448   -478505.51   -466144.85 
  141500    84.924925   -478471.05    -466107.7 
  141600    85.128326   -478490.22   -466097.25 
  141700    84.622076   -478471.99   -466152.73 
  141800    84.576435   -478414.76   -466102.14 
  141900    84.859966   -478412.07   -466058.17 
  142000    84.908797   -478419.91    -466058.9 
  142100    84.727827   -478323.84   -465989.18 
  142200     85.26383   -478346.34   -465933.65 
  142300    85.248803   -478287.99   -465877.49 
  142400    85.214816   -478279.52   -465873.96 
  142500    85.001122   -478223.76   -465849.31 
  142600    84.933268   -478213.31   -465848.74 
  142700    85.191786   -478254.23   -465852.03 
  142800    85.218332   -478355.74   -465949.68 
  142900    84.595771   -478248.99   -465933.55 
  143000    85.378425   -478286.53   -465857.16 
  143100    84.889997   -478291.76   -465933.49 
  143200    84.821187   -478292.64   -465944.39 
  143300    85.033751   -478319.58   -465940.39 
  143400    85.094341   -478267.63   -465879.62 
  143500      84.9629   -478268.02   -465899.14 
  143600    85.241704   -478231.78   -465822.32 
  143700    84.838536   -478321.48    -465970.7 
  143800      85.4551   -478386.81   -465946.28 
  143900    85.104583      -478333   -465943.49 
  144000    84.998251   -478337.56   -465963.53 
  144100    85.201258    -478402.2   -465998.62 
  144200    84.858084   -478393.45   -466039.83 
  144300    85.277675   -478326.38   -465911.68 
  144400    85.386526   -478377.13   -465946.58 
  144500    84.727356   -478461.94   -466127.35 
  144600    85.143255   -478395.75   -466000.61 
  144700    85.452204   -478501.99   -466061.88 
  144800    85.187108   -478436.49   -466034.97 
  144900    84.788226   -478509.47   -466166.02 
  145000    84.976081   -478490.31   -466119.51 
  145100    85.122005   -478516.92   -466124.88 
  145200    85.416889   -478383.86   -465948.88 
  145300    84.932325   -478515.83    -466151.4 
  145400    84.693247   -478522.16   -466192.53 
  145500    85.073881   -478519.67   -466134.63 
  145600    84.752628   -478489.43   -466151.16 
  145700    84.745698   -478534.66    -466197.4 
  145800    84.310481   -478440.81   -466166.91 
  145900    84.590199   -478486.17   -466171.55 
  146000    84.936293   -478481.12   -466116.12 
  146100    84.750365   -478572.71   -466234.77 
  146200    85.010464   -478540.52   -466164.71 
  146300    84.754364   -478495.01   -466156.49 
  146400    84.556585   -478445.08   -466135.35 
  146500    85.154203   -478502.69   -466105.96 
  146600    85.001664    -478511.8   -466137.28 
  146700     84.76541   -478491.48   -466151.35 
  146800     85.50059   -478533.35   -466086.19 
  146900    84.441103   -478477.25   -466184.33 
  147000    84.698326   -478504.02   -466173.66 
  147100    85.277117   -478462.57   -466047.94 
  147200    84.935391   -478480.87   -466115.99 
  147300      84.8197   -478424.72   -466076.69 
  147400    84.962456   -478416.72   -466047.91 
  147500    85.459178   -478429.81   -465988.68 
  147600    85.098511   -478484.82   -466096.19 
  147700    84.787315   -478446.03   -466102.71 
  147800    85.415381   -478453.24   -466018.49 
  147900    85.160872   -478514.63   -466116.92 
  148000    84.915704   -478550.17   -466188.16 
  148100    85.206499   -478546.23   -466141.88 
  148200    84.815135   -478504.95   -466157.58 
  148300    84.907274   -478512.13   -466151.35 
  148400    85.236546   -478549.59   -466140.87 
  148500    84.884844   -478521.73   -466164.21 
  148600    85.002099   -478533.92   -466159.33 
  148700    84.605702    -478509.8   -466192.92 
  148800    85.154869   -478537.38   -466140.55 
  148900    85.358796   -478544.55   -466118.04 
  149000    84.641745   -478448.13      -466126 
  149100    85.385396   -478461.39      -466031 
  149200    85.025572   -478574.03   -466196.02 
  149300    85.220841   -478506.28   -466099.85 
  149400    85.067373   -478516.79    -466132.7 
  149500    85.093225   -478564.12   -466176.26 
  149600    85.375056   -478497.35   -466068.47 
  149700     84.82237   -478567.96   -466219.54 
  149800    85.088356   -478526.73   -466139.58 
  149900    84.674501   -478534.53   -466207.64 
  150000    85.448283   -478487.98   -466048.44 
  150100    84.273339   -478521.38   -466252.89 
  150200    85.041323   -478532.87   -466152.57 
  150300    85.105893    -478523.1    -466133.4 
  150400    85.179136    -478526.5   -466126.14 
  150500    84.471115   -478621.32   -466324.04 
  150600    84.433685   -478544.77   -466252.93 
  150700    84.590468   -478488.31   -466173.65 
  150800    84.252552   -478485.72   -466220.25 
  150900    85.418739   -478510.25   -466075.01 
  151000    85.329089   -478564.56   -466142.37 
  151100    85.330262   -478488.05   -466065.69 
  151200    84.293086   -478526.66   -466255.29 
  151300    84.514685   -478508.07   -466204.45 
  151400    85.329332   -478500.79   -466078.56 
  151500    84.871908    -478501.3   -466145.67 
  151600    85.151788   -478487.45   -466091.07 
  151700    85.086532   -478503.49   -466116.61 
  151800    84.993091   -478453.68   -466080.41 
  151900    84.786494    -478440.7    -466097.5 
  152000    84.755572   -478423.28   -466084.58 
  152100    84.833914   -478380.74   -466030.64 
  152200    85.548376   -478444.35   -465990.24 
  152300    84.962259   -478353.41   -465984.62 
  152400    84.510766   -478417.39   -466114.33 
  152500    84.740158   -478455.43   -466118.97 
  152600    84.710832   -478389.44   -466057.25 
  152700     84.71535   -478379.24    -466046.4 
  152800    85.163575   -478415.57   -466017.47 
  152900    85.160604   -478431.75   -466034.09 
  153000    85.740817   -478461.51   -465979.38 
  153100    85.088424   -478449.55    -466062.4 
  153200    84.631289   -478443.66   -466123.06 
  153300    84.670094   -478453.26   -466127.01 
  153400    84.746893   -478489.82   -466152.39 
  153500    85.244475   -478478.94   -466069.07 
  153600     84.99771    -478461.9   -466087.95 
  153700     85.59232   -478455.13   -465994.62 
  153800    84.832851   -478520.97   -466171.02 
  153900    84.992909   -478422.34    -466049.1 
  154000    84.913628   -478465.33   -466103.62 
  154100    85.421987   -478359.38   -465923.67 
  154200    85.373102   -478390.24   -465961.64 
  154300    85.270798    -478453.9    -466040.2 
  154400    85.448881   -478422.32   -465982.69 
  154500    85.059387   -478396.27   -466013.34 
  154600    85.309093    -478504.8   -466085.52 
  154700    84.796705   -478425.23   -466080.54 
  154800    84.900622   -478361.74   -466001.93 
  154900    85.502162   -478481.12   -466033.74 
  155000    84.525378   -478393.58    -466088.4 
  155100    85.497416   -478480.33   -466033.64 
  155200    85.371316   -478361.42   -465933.09 
  155300    84.322954   -478451.21    -466175.5 
  155400    85.049213   -478409.45      -466028 
  155500    85.262012   -478458.96   -466046.54 
  155600    85.221263    -478423.7   -466017.21 
  155700    85.340674   -478434.04   -466010.16 
  155800    85.345074   -478482.45   -466057.93 
  155900    85.104295    -478551.3   -466161.84 
  156000    84.474065   -478416.61   -466118.89 
  156100    84.989178   -478504.31   -466131.61 
  156200    85.092117   -478506.42   -466118.72 
  156300    84.729033   -478433.14   -466098.31 
  156400    85.363063   -478437.83   -466010.69 
  156500    84.937251   -478471.65    -466106.5 
  156600     85.22998    -478474.9   -466067.14 
  156700    84.663073   -478450.71   -466125.47 
  156800    85.419374   -478454.42   -466019.08 
  156900    84.319037   -478529.28   -466254.13 
  157000    85.324095   -478479.68   -466058.22 
  157100    85.481271    -478618.4   -466174.05 
  157200    85.231776   -478542.89   -466134.87 
  157300    85.217507   -478512.86   -466106.92 
  157400     85.13785   -478562.98   -466168.63 
  157500    84.668613   -478538.81   -466212.78 
  157600    85.822998   -478593.31   -466099.22 
  157700    84.389678    -478557.7   -466272.27 
  157800    84.924013   -478595.61   -466232.39 
  157900    84.670862   -478538.31   -466211.95 
  158000    84.950773   -478565.09   -466197.97 
  158100    84.887377   -478552.22   -466194.33 
  158200    84.780774    -478598.5   -466256.14 
  158300      84.6364   -478586.23   -466264.88 
  158400    85.180718   -478485.43   -466084.84 
  158500    84.558488   -478538.59   -466228.59 
  158600    85.501987   -478547.32   -466099.96 
  158700    85.373342   -478531.46   -466102.83 
  158800    85.227188   -478515.66    -466108.3 
  158900    85.333918   -478506.36   -466083.47 
  159000    84.963465   -478459.53   -466090.57 
  159100    85.071101   -478553.96   -466169.32 
  159200    84.953962   -478479.47   -466111.89 
  159300    85.133129   -478524.08   -466130.42 
  159400    85.281365   -478610.18   -466194.94 
  159500    85.240218   -478531.76    -466122.5 
  159600    85.348076   -478559.55    -466134.6 
  159700    85.165909   -478551.86   -466153.42 
  159800    85.041128      -478572   -466191.73 
  159900    84.856774   -478569.97   -466216.53 
  160000    85.261435   -478583.08   -466170.74 
  160100    85.214373    -478537.2   -466131.71 
  160200    84.753325   -478487.21   -466148.84 
  160300    84.789272   -478551.69   -466208.09 
  160400    84.827711   -478487.98   -466138.78 
  160500    85.030087   -478621.94   -466243.28 
  160600    84.966303   -478576.43   -466207.05 
  160700    84.842496   -478548.09   -466196.74 
  160800    85.092209   -478620.03   -466232.33 
  160900    84.732369   -478539.31   -466203.99 
  161000    84.821924   -478693.68   -466345.33 
  161100    85.005626   -478617.17   -466242.07 
  161200    85.081306   -478734.13   -466348.01 
  161300    85.633406   -478658.65   -466192.16 
  161400    84.700856   -478668.53    -466337.8 
  161500    85.071277   -478647.98   -466263.32 
  161600    85.194821   -478644.35    -466241.7 
  161700    84.960264   -478701.93   -466333.43 
  161800    84.804506      -478658   -466312.18 
  161900    84.830237   -478719.33   -466369.76 
  162000    85.466378   -478722.68   -466280.51 
  162100    85.402908   -478700.85   -466267.91 
  162200    84.696105   -478647.38   -466317.34 
  162300    84.434221   -478674.29   -466382.37 
  162400    84.499491    -478628.5   -466327.08 
  162500    85.143846   -478673.84   -466278.61 
  162600    85.247644   -478602.85   -466192.51 
  162700    84.834876   -478675.66   -466325.42 
  162800    84.848587   -478660.81   -466308.57 
  162900    85.130202   -478563.22   -466169.99 
  163000    85.232192   -478606.44   -466198.35 
  163100    85.040973   -478619.28   -466239.04 
  163200    85.170703   -478693.81   -466294.68 
  163300    85.578432   -478695.64   -466237.15 
  163400    85.154569    -478612.7   -466215.91 
  163500    85.019989   -478640.71   -466263.52 
  163600    85.040104   -478643.08   -466262.96 
  163700    85.140295   -478646.82   -466252.12 
  163800    85.205863   -478606.41   -466202.16 
  163900    84.670214   -478589.48   -466263.21 
  164000    85.264148   -478573.36   -466160.63 
  164100    85.246732   -478572.63   -466162.43 
  164200    84.975359   -478555.05   -466184.36 
  164300    85.072801   -478565.59   -466180.71 
  164400    85.117042   -478558.19   -466166.87 
  164500    84.730077    -478598.9   -466263.92 
  164600    84.879684   -478613.83   -466257.07 
  164700    85.075393   -478575.97   -466190.71 
  164800    84.928849   -478630.55   -466266.63 
  164900    84.451036   -478611.52   -466317.16 
  165000    85.408028   -478580.63   -466146.94 
  165100    85.132411   -478621.88   -466228.32 
  165200    84.973117   -478617.22   -466246.85 
  165300    84.977779   -478562.67   -466191.63 
  165400     85.41085   -478590.63   -466156.54 
  165500    85.705945   -478709.01   -466231.96 
  165600     85.15208   -478564.66   -466168.24 
  165700    85.137746   -478675.49   -466281.16 
  165800    85.071325   -478684.32   -466299.65 
  165900    85.345816   -478679.81   -466255.19 
  166000    85.139817   -478698.84   -466304.21 
  166100     85.01538   -478709.81   -466333.29 
  166200    84.696448   -478726.13   -466396.04 
  166300      84.8712   -478737.42   -466381.89 
  166400    85.132905   -478700.02   -466306.39 
  166500    85.366164   -478647.24   -466219.65 
  166600    85.445601   -478679.02   -466239.86 
  166700    85.362752   -478715.29    -466288.2 
  166800    85.156571   -478607.69   -466210.62 
  166900    85.573177   -478727.65   -466269.93 
  167000    85.027097   -478666.56   -466288.33 
  167100    84.661094   -478704.46   -466379.51 
  167200    85.114174   -478662.19   -466271.28 
  167300    84.991189   -478655.23   -466282.23 
  167400    85.257274   -478658.47   -466246.73 
  167500    85.155131   -478671.87      -466275 
  167600    84.970295   -478622.87   -466252.91 
  167700    84.947905   -478586.35   -466219.65 
  167800    85.183625   -478620.47   -466219.46 
  167900     84.52062   -478659.93   -466355.44 
  168000    84.770456    -478687.4   -466346.54 
  168100    84.584269   -478684.23   -466370.47 
  168200       85.232   -478590.66    -466182.6 
  168300    84.523766   -478627.67   -466322.72 
  168400     85.51206   -478598.77   -466149.94 
  168500    85.010367    -478617.4   -466241.61 
  168600    84.995478    -478588.5   -466214.87 
  168700    84.766862   -478576.58   -466236.23 
  168800    85.266532   -478686.36   -466273.28 
  168900    84.471302   -478607.66   -466310.34 
  169000    85.358663   -478664.64   -466238.14 
  169100    84.940033   -478682.69   -466317.14 
  169200    84.832678   -478585.14   -466235.22 
  169300    84.855676    -478697.7   -466344.43 
  169400     84.88554   -478680.07   -466322.45 
  169500    85.412688   -478700.74   -466266.38 
  169600    85.317203   -478638.88   -466218.42 
  169700    85.192236   -478659.88   -466257.61 
  169800    85.190381   -478682.93   -466280.93 
  169900    85.184713   -478608.06   -466206.89 
  170000    84.932391   -478602.24   -466237.81 
  170100     85.01409   -478615.81   -466239.48 
  170200    84.661535   -478652.38   -466327.37 
  170300    84.059241   -478651.22   -466413.89 
  170400    85.163609   -478679.81   -466281.71 
  170500    84.737686   -478691.61   -466355.51 
  170600    84.682632   -478660.02   -466331.94 
  170700    85.103503   -478641.92   -466252.57 
  170800    85.078165   -478600.86    -466215.2 
  170900    85.082604   -478589.51    -466203.2 
  171000    84.757024   -478574.02   -466235.11 
  171100    85.429411   -478540.94   -466104.15 
  171200    85.282609   -478568.57   -466153.14 
  171300    84.571876   -478543.15    -466231.2 
  171400    85.569744    -478511.2   -466053.97 
  171500     85.32197   -478515.04   -466093.88 
  171600    85.413421   -478574.78   -466140.32 
  171700     84.48851   -478563.27   -466263.45 
  171800    85.202865   -478568.13   -466164.32 
  171900    85.099112   -478561.09   -466172.38 
  172000    85.524084   -478582.91   -466132.33 
  172100     85.21847   -478554.79    -466148.7 
  172200    84.511485   -478614.06   -466310.89 
  172300     85.21997   -478513.59   -466107.29 
  172400     85.63701    -478590.8   -466123.79 
  172500    84.465748   -478643.94   -466347.43 
  172600    84.557031   -478548.88   -466239.09 
  172700     85.09842   -478565.63   -466177.02 
  172800       84.851    -478553.2   -466200.61 
  172900    85.042701   -478541.82   -466161.32 
  173000    85.120311    -478612.9    -466221.1 
  173100    85.609059   -478657.29   -466194.34 
  173200    84.952847   -478669.78   -466302.37 
  173300    84.973579   -478592.71   -466222.27 
  173400    84.774603   -478600.23   -466258.76 
  173500    84.585633    -478577.7   -466263.74 
  173600    84.555262   -478672.93    -466363.4 
  173700    84.503255   -478633.96      -466332 
  173800    84.726655   -478626.85   -466292.36 
  173900    85.268095   -478684.32   -466271.01 
  174000    85.238077   -478672.68   -466263.74 
  174100    84.785673   -478743.23   -466400.15 
  174200    84.943129   -478676.21   -466310.21 
  174300    85.294879   -478696.31    -466279.1 
  174400    85.238568   -478734.81    -466325.8 
  174500    84.735527   -478700.71   -466364.93 
  174600     85.07272   -478793.25   -466408.39 
  174700    84.952847   -478728.18   -466360.76 
  174800    84.855243   -478671.64   -466318.43 
  174900    84.483864   -478702.43   -466403.28 
  175000    85.202708   -478734.88   -466331.09 
  175100    84.759146      -478653   -466313.78 
  175200     84.70556   -478621.19   -466289.77 
  175300    84.452301   -478647.89   -466353.34 
  175400    85.022528   -478659.48   -466281.92 
  175500    85.471137   -478630.12   -466187.25 
  175600    86.020038   -478665.99   -466143.21 
  175700    85.572434   -478629.48   -466171.86 
  175800     85.21558   -478680.23   -466274.56 
  175900    84.687103   -478681.83    -466353.1 
  176000    85.494341   -478669.61   -466223.36 
  176100    85.122265   -478661.05   -466268.97 
  176200    84.965964    -478682.9   -466313.58 
  176300    84.468078   -478627.47   -466330.62 
  176400    84.246577   -478678.07   -466413.47 
  176500    84.549193   -478589.47   -466280.81 
  176600    84.705882   -478708.61   -466377.14 
  176700     85.23848   -478619.25   -466210.25 
  176800    85.563233   -478645.53   -466189.25 
  176900    84.711899   -478636.19   -466303.85 
  177000    84.773785   -478652.68   -466311.33 
  177100    84.658444   -478687.22   -466362.66 
  177200    85.316084    -478726.6    -466306.3 
  177300    84.824757   -478660.59   -466311.82 
  177400    84.286474   -478598.94   -466328.54 
  177500    85.086689   -478608.97   -466222.06 
  177600    85.485921   -478608.86   -466163.84 
  177700    85.162794   -478662.66   -466264.68 
  177800    85.474641   -478675.52   -466232.14 
  177900    85.085838   -478670.99   -466284.21 
  178000    84.564839   -478660.85   -466349.92 
  178100     85.59242   -478638.82    -466178.3 
  178200    85.135945   -478614.02   -466219.95 
  178300    84.635645   -478659.14    -466337.9 
  178400    84.435144    -478643.9   -466351.85 
  178500    85.164144   -478715.43   -466317.26 
  178600    84.883007   -478723.39   -466366.14 
  178700    85.666237   -478682.02   -466210.74 
  178800    84.419341   -478717.93   -466428.18 
  178900    84.879555   -478699.36   -466342.62 
  179000     84.68974   -478667.92   -466338.81 
  179100    85.068989   -478825.42   -466441.09 
  179200     85.07199   -478781.17    -466396.4 
  179300    85.358012   -478766.94   -466340.54 
  179400     85.40577   -478808.26   -466374.91 
  179500    85.197612   -478828.61   -466425.56 
  179600    84.523006   -478840.95   -466536.11 
  179700    85.197328    -478813.4   -466410.39 
  179800    85.333851   -478777.62   -466354.74 
  179900    85.137956    -478797.1   -466402.74 
  180000    85.017632   -478752.21   -466375.36 
  180100    85.218927   -478813.11   -466406.96 
  180200    84.791143   -478712.39   -466368.52 
  180300    85.239684   -478812.32   -466403.14 
  180400    84.451263   -478686.83   -466392.43 
  180500    84.992027   -478832.26   -466459.14 
  180600    85.366264   -478814.81   -466387.21 
  180700    85.110217   -478753.45   -466363.12 
  180800    84.703846   -478845.89   -466514.73 
  180900    84.939417   -478692.55   -466327.09 
  181000    84.770499   -478777.65   -466436.78 
  181100    84.816944   -478724.13    -466376.5 
  181200    84.287902   -478684.01   -466413.39 
  181300    84.637465   -478774.76   -466453.26 
  181400    84.911618   -478697.22   -466335.81 
  181500    84.819804   -478638.89   -466290.84 
  181600    84.395104   -478675.25   -466389.03 
  181700    84.556777   -478710.56    -466400.8 
  181800    84.502656   -478737.94   -466436.06 
  181900    84.777549   -478747.37   -466405.47 
  182000    84.823935   -478774.55    -466425.9 
  182100    84.923678   -478740.41   -466377.24 
  182200    85.243493   -478713.94   -466304.21 
  182300     84.53393   -478733.57   -466427.14 
  182400    85.122739    -478693.2   -466301.05 
  182500    85.728656   -478653.39   -466173.03 
  182600    84.580713    -478720.9   -466407.66 
  182700    84.457549   -478706.54   -466411.23 
  182800    85.014731   -478649.97   -466273.54 
  182900    84.610372   -478624.41   -466306.85 
  183000    84.440876   -478752.92   -466460.04 
  183100    84.866342   -478677.47   -466322.64 
  183200    84.904973   -478693.95   -466333.51 
  183300    85.300301   -478698.39   -466280.39 
  183400    85.038284   -478730.17   -466350.31 
  183500     85.44301   -478805.95   -466367.18 
  183600    84.230768   -478727.15   -466464.85 
  183700    84.465263   -478736.14   -466439.71 
  183800    85.080389   -478752.67   -466366.68 
  183900     85.02154   -478739.83   -466362.41 
  184000    84.949956   -478696.25   -466329.25 
  184100    85.393528   -478734.23   -466302.66 
  184200    85.052009    -478657.2   -466275.35 
  184300    85.042142   -478700.31   -466319.89 
  184400    84.977704   -478674.11   -466303.08 
  184500    85.294981   -478759.77   -466342.54 
  184600    85.199715   -478724.19   -466320.83 
  184700    85.285448   -478759.88   -466344.04 
  184800    85.006349   -478762.55   -466387.34 
  184900    84.888366   -478754.97   -466396.94 
  185000    84.715987   -478799.49   -466466.55 
  185100    84.561133   -478779.51   -466469.12 
  185200    85.202036   -478741.32   -466337.62 
  185300     85.41638   -478707.86   -466272.96 
  185400    84.105257   -478740.41   -466496.38 
  185500    85.070942   -478807.58   -466422.97 
  185600    85.016389   -478740.64   -466363.97 
  185700    84.894782   -478813.99   -466455.02 
  185800    85.161764   -478698.72   -466300.89 
  185900    85.215597   -478688.86   -466283.19 
  186000    84.929965   -478663.21   -466299.13 
  186100    85.604518   -478663.38   -466201.09 
  186200    85.012481   -478724.23   -466348.14 
  186300    85.303201   -478711.71   -466293.29 
  186400    85.041263   -478800.62   -466420.33 
  186500    85.026961   -478677.14   -466298.93 
  186600     85.41361   -478784.61   -466350.11 
  186700     84.80133   -478704.28   -466358.92 
  186800    84.838855   -478675.08   -466324.25 
  186900    84.998999   -478705.74   -466331.61 
  187000    85.076111   -478640.97   -466255.61 
  187100    85.000347   -478660.49   -466286.16 
  187200    85.264382   -478763.66   -466350.89 
  187300    84.870766   -478690.75   -466335.28 
  187400    84.561286   -478736.97   -466426.55 
  187500    84.725791   -478705.67   -466371.31 
  187600    85.012192   -478748.64   -466372.59 
  187700    84.713731   -478733.84   -466401.24 
  187800    84.939815   -478742.94   -466377.42 
  187900    84.957845   -478821.01   -466452.86 
  188000    84.841212   -478787.47    -466436.3 
  188100    84.664778   -478792.59   -466467.11 
  188200    85.354074   -478762.42   -466336.59 
  188300    85.415884   -478715.47   -466280.64 
  188400    85.041958   -478799.72   -466419.33 
  188500    84.978826   -478828.86   -466457.66 
  188600    84.568382    -478816.5   -466505.06 
  188700    84.786207   -478889.63   -466546.47 
  188800    84.877133   -478891.89    -466535.5 
  188900    84.488176   -478814.97    -466515.2 
  189000    84.953582   -478881.88   -466514.35 
  189100    85.042698   -478913.44   -466532.94 
  189200     84.71127   -478858.92   -466526.67 
  189300    85.134247   -478892.27   -466498.44 
  189400    85.539572   -478945.26   -466492.43 
  189500    84.527213   -478996.96   -466691.51 
  189600    84.530666   -478882.01   -466576.05 
  189700    85.099411   -478927.67   -466538.92 
  189800    85.093438   -478932.12   -466544.24 
  189900    85.263254   -478890.92   -466478.31 
  190000    85.344859   -479024.19    -466599.7 
  190100    85.005192    -478899.4   -466524.36 
  190200    85.048457   -478950.65   -466569.31 
  190300     84.83796   -478929.45   -466578.76 
  190400    84.554026   -478858.36      -466549 
  190500    85.284614   -478938.05   -466522.33 
  190600    84.971333   -478972.73   -466602.62 
  190700    84.790428   -478924.75   -466580.97 
  190800    84.361317    -478873.8    -466592.5 
  190900    85.084492   -478863.02   -466476.43 
  191000    84.764925   -478921.23   -466581.17 
  191100     85.25813   -478888.28   -466476.42 
  191200    86.218244   -478789.69   -466238.06 
  191300    84.882502   -478835.95   -466478.78 
  191400     84.61087   -478816.72   -466499.09 
  191500    85.121669   -478803.11   -466411.11 
  191600    84.898371   -478847.07   -466487.58 
  191700    85.036122   -478937.85   -466558.31 
  191800    85.026985   -478907.88   -466529.67 
  191900    85.583226   -478845.47   -466386.28 
  192000    84.602924   -478880.34   -466563.86 
  192100    84.449902   -478857.79   -466563.59 
  192200    84.863775   -478851.19   -466496.74 
  192300    84.877245   -478808.75   -466452.34 
  192400    85.002328   -478942.89   -466568.27 
  192500     85.01179   -478911.79   -466535.79 
  192600    84.935206   -478914.08   -466549.23 
  192700    84.613627   -478959.21   -466641.17 
  192800    84.406875   -479004.26   -466716.33 
  192900     84.86158   -478869.41   -466515.28 
  193000    84.871481   -478907.91   -466552.34 
  193100    84.681142   -478908.79   -466580.93 
  193200     85.06164   -478934.61   -466551.35 
  193300    85.224568   -478960.09   -466553.12 
  193400    84.992049   -479019.66   -466646.53 
  193500    85.345431   -478924.39   -466499.82 
  193600    84.998988   -478970.68   -466596.54 
  193700    84.758062   -478953.23   -466614.17 
  193800    84.586554   -478989.82   -466675.73 
  193900    84.639651   -478929.71   -466607.88 
  194000    84.889841   -478947.27   -466589.02 
  194100    84.878407   -478925.56   -466568.98 
  194200    85.381152   -478943.52   -466513.75 
  194300    84.986617   -478894.33      -466522 
  194400    84.892713   -478882.02   -466523.36 
  194500    85.292314   -478986.64    -466569.8 
  194600    85.449689   -479001.04   -466561.29 
  194700     85.44946   -479023.05   -466583.34 
  194800    85.062784   -479017.34   -466633.92 
  194900     84.96785   -479048.46   -466678.86 
  195000    85.577271   -479059.76   -466601.44 
  195100    85.025609   -479055.59   -466677.58 
  195200    84.662987   -479097.71   -466772.49 
  195300     84.73352   -479018.66   -466683.17 
  195400    84.801492   -479113.49   -466768.11 
  195500    84.678805   -479120.27   -466792.75 
  195600    84.902129   -479047.86   -466687.82 
  195700    85.338224   -479046.92    -466623.4 
  195800     85.34994   -479017.01   -466591.79 
  195900    85.330205   -479014.63   -466592.27 
  196000    84.682731   -478933.85   -466605.75 
  196100    85.078455   -478984.67   -466598.97 
  196200    85.456442   -478959.68   -466518.95 
  196300    85.316873   -478924.27   -466503.86 
  196400    85.309782   -478989.35   -466569.97 
  196500    84.619421   -478917.52   -466598.64 
  196600    85.088788   -478948.96   -466561.76 
  196700    85.088401   -478843.09   -466455.94 
  196800    84.879829   -478956.94   -466600.15 
  196900    84.697165   -478924.42   -466594.22 
  197000    84.918731   -478967.29   -466604.84 
  197100    85.409045   -478906.13    -466472.3 
  197200     84.97354   -478954.45   -466584.02 
  197300    84.939177   -478921.76   -466556.34 
  197400    84.902508    -478947.8   -466587.71 
  197500    84.635823   -478980.05   -466658.78 
  197600    84.776029   -479000.91   -466659.23 
  197700    84.685917   -478990.96    -466662.4 
  197800    84.964389   -478961.85   -466592.75 
  197900    85.202185   -478948.14   -466544.43 
  198000    84.800214   -478915.22   -466570.03 
  198100    85.203445   -478966.59   -466562.69 
  198200    84.687137   -479005.39   -466676.65 
  198300    85.131788   -478938.45   -466544.98 
  198400    85.059191   -478967.04   -466584.15 
  198500    85.205623   -478991.57   -466587.36 
  198600    85.127199   -478987.73   -466594.93 
  198700    85.074331   -479016.37   -466631.27 
  198800    85.102439   -479037.55   -466648.35 
  198900    84.541522   -479045.86   -466738.32 
  199000    84.894584   -479045.05   -466686.12 
  199100    84.262816   -479077.65   -466810.69 
  199200     84.25088   -478917.34   -466652.12 
  199300    84.582148   -479017.32   -466703.87 
  199400    85.038234   -479071.38   -466691.53 
  199500    85.342423   -478978.92   -466554.79 
  199600    84.857289    -478986.4   -466632.89 
  199700    85.168253   -478927.52   -466528.75 
  199800    84.805959   -478994.59   -466648.56 
  199900    84.697012   -478926.94   -466596.77 
  200000    84.721009   -478976.58   -466642.91 
Loop time of 17749.6 on 32 procs for 200000 steps with 81390 atoms

Performance: 4.868 ns/day, 4.930 hours/ns, 11.268 timesteps/s
96.9% CPU use with 4 MPI tasks x 8 OpenMP threads

MPI task timing breakdown:
Section |  min time  |  avg time  |  max time  |%varavg| %total
---------------------------------------------------------------
Pair    | 3724.3     | 11210      | 16157      |4659.3 | 63.16
Neigh   | 251.72     | 608.03     | 849.49     | 957.7 |  3.43
Comm    | 580.82     | 5649.6     | 13348      |6766.9 | 31.83
Output  | 31.25      | 31.387     | 31.493     |   1.6 |  0.18
Modify  | 84.51      | 202.29     | 325.38     | 603.5 |  1.14
Other   |            | 48.03      |            |       |  0.27

Nlocal:    20347.5 ave 26760 max 11197 min
Histogram: 1 0 0 0 1 0 0 0 1 1
Nghost:    35202 ave 40483 max 27060 min
Histogram: 1 0 0 0 1 0 0 0 0 2
Neighs:    5.29044e+06 ave 7.95507e+06 max 1.45762e+06 min
Histogram: 1 0 0 0 1 0 0 0 1 1

Total # of neighbors = 21161765
Ave neighs/atom = 260.004
Neighbor list builds = 6353
Dangerous builds = 0


Total wall time: 4:56:03
