LAMMPS (3 Mar 2020)
  using 8 OpenMP thread(s) per MPI task
## binning x:130-500, y:0.0-121.83, z:11.79-98.0

############################################################
#####	 	    Argon sandwich	   	   #########
############################################################
variable		T equal 33.0
variable 		V equal vol
variable 		dt equal 5.0
variable 		epsilon equal 0.0656
variable 		sigma equal 3.5

units			real
atom_style		bond
special_bonds 		fene

dimension 		3
boundary		p p f

read_data 		bond_atomdata
  orthogonal box = (0 0 0) to (687.75 121.83 110.05)
  4 by 1 by 1 MPI processor grid
  reading atoms ...
  81390 atoms
  scanning bonds ...
  1 = max bonds/atom
  reading bonds ...
  42735 bonds
  2 = max # of 1-2 neighbors
  2 = max # of special neighbors
  special bonds CPU = 0.00641799 secs
  read_data CPU = 0.140126 secs
#read_data 		bond_atomdata_small
#read_data		atomdata
#read_data         	atomdata_small
#read_restart 		water.restart.mpiio

############################################################
#############INTERACTION PARAMETERS#########################
group                   bread     type 2
32550 atoms in group bread
group                   ham       type 1
48840 atoms in group ham

mass                    2       12.0  ## atomic mass of platinum
mass                    1       12.0  ## atomic mass of platinum

neighbor        	2.0 bin
neigh_modify		every 1 delay 10 check yes
################### L-J potential #####################
pair_style              lj/cut  5.5

pair_coeff              1 1  0.0656 3.5 8.75
pair_coeff              1 2  0.0656 3.5 8.75
pair_coeff              2 2  0.05248 3.5 8.75
#################### FENE bond #########################
bond_style 		fene
bond_coeff 		1 0.0655 4.9 0.0 0.0
#################### Harmonic potential ##################
fix 			wall bread spring/self 5.355101

thermo 			10
min_style 		fire
min_modify 		dmax 0.01
minimize 		1.0e-5 1.0e-7 200 10000
WARNING: Using 'neigh_modify every 1 delay 0 check yes' setting during minimization (../min.cpp:190)
Neighbor list info ...
  update every 1 steps, delay 0 steps, check yes
  max neighbors/atom: 2000, page size: 100000
  master list distance cutoff = 10.75
  ghost atom cutoff = 10.75
  binsize = 5.375, bins = 128 23 21
  1 neighbor lists, perpetual/occasional/extra = 1 0 0
  (1) pair lj/cut, perpetual
      attributes: half, newton on
      pair build: half/bin/newton
      stencil: half/bin/3d/newton
      bin: standard
  Parameters for fire: 
    dmax delaystep dtgrow dtshrink alpha0 alphashrink tmax tmin    integrator halfstepback 
    0.01        20    1.1      0.5   0.25        0.99   10 0.02 eulerimplicit          yes 
Per MPI rank memory allocation (min/avg/max) = 19.83 | 29.14 | 43.63 Mbytes
Step Temp E_pair E_mol TotEng Press 
       0            0    202774.57    34637.846    237412.42    7382.2064 
      10     6.291426    200584.19    34627.555    236738.08     7320.483 
      20     19.89931    196082.77    34597.226    235507.67    7193.9511 
      30    35.146472    191117.45    34548.888    234193.05    7054.4431 
      40    50.135009    186421.86    34489.329     233074.2    6923.2116 
      50    65.097722    181877.55    34419.704     232090.3    6797.0143 
      60    80.095966    177446.05    34340.955     231218.7    6674.6433 
      70    95.139806    173107.68     34253.86    230442.95    6555.4801 
      80    110.21013    168845.59    34159.086    229742.22    6439.1026 
      90    125.26864    164659.49    34057.189     229107.5     6325.409 
     100    140.26379    160551.16    33948.636    228528.51    6214.3568 
     110    155.13968    156512.63    33833.803    227984.12    6105.7337 
     120     169.8566    152544.32    33712.958    227465.36    5999.3689 
     130    184.41964    148635.24    33586.254    226962.65    5894.8349 
     140    198.89693    144767.32    33453.724    226474.47    5791.5552 
     150    213.39734    140904.36    33315.274    225990.93    5688.7068 
     160    228.01523    137036.96    33170.695    225525.33    5585.9296 
     170    242.78861    133154.99    33019.702    225076.46    5482.9477 
     180    257.69236    129258.38    32861.939    224637.81    5379.7166 
     190    272.64471    125346.66    32696.981    224188.65    5276.2397 
     200    287.53365     121422.4    32524.199    223703.74     5172.563 
Loop time of 6.40016 on 32 procs for 200 steps with 81390 atoms

90.6% CPU use with 4 MPI tasks x 8 OpenMP threads

Minimization stats:
  Stopping criterion = max iterations
  Energy initial, next-to-last, final = 
         237412.415345      154356.889086       153946.59702
  Force two-norm initial, final = 1267.95 297.073
  Force max component initial, final = 23.2612 2.12793
  Final line search alpha, max atom move = 0 0
  Iterations, force evaluations = 200 201

MPI task timing breakdown:
Section |  min time  |  avg time  |  max time  |%varavg| %total
---------------------------------------------------------------
Pair    | 0.42843    | 2.5105     | 5.4625     | 136.5 | 39.23
Bond    | 4.7445e-05 | 0.090665   | 0.21738    |  31.3 |  1.42
Neigh   | 0.051945   | 0.053127   | 0.05367    |   0.3 |  0.83
Comm    | 0.24122    | 2.9338     | 5.466      | 112.4 | 45.84
Output  | 0.011587   | 0.012281   | 0.013019   |   0.6 |  0.19
Modify  | 0.012962   | 0.014846   | 0.017662   |   1.6 |  0.23
Other   |            | 0.7849     |            |       | 12.26

Nlocal:    20347.5 ave 37488 max 7998 min
Histogram: 2 0 0 0 0 0 1 0 0 1
Nghost:    6571.5 ave 12300 max 2400 min
Histogram: 2 0 0 0 0 0 1 0 0 1
Neighs:    1.08986e+06 ave 2.32563e+06 max 216106 min
Histogram: 2 0 0 0 0 0 1 0 0 1

Total # of neighbors = 4359444
Ave neighs/atom = 53.5624
Ave special neighs/atom = 1.05013
Neighbor list builds = 1
Dangerous builds = 0

############################################################
#############EQUILIBRATION PARAMETERS######################
velocity 		ham create ${T} 12345
velocity 		ham create 33 12345
velocity                bread set 0.0 0.0 0.0
compute 		myTemp ham temp
fix			1 ham nvt temp ${T} ${T} 100.0
fix			1 ham nvt temp 33 ${T} 100.0
fix			1 ham nvt temp 33 33 100.0
fix_modify   		1 temp myTemp
WARNING: Temperature for fix modify is not for group all (../fix_nh.cpp:1409)

run 			100
Per MPI rank memory allocation (min/avg/max) = 19.83 | 29.14 | 43.64 Mbytes
Step Temp E_pair E_mol TotEng Press 
     200    19.802271     121422.4    32524.199    158750.73    4850.5619 
     210    18.120883    121829.46    32527.545    158753.22    4860.9947 
     220    18.890926    121640.61    32536.258     158759.9    4855.8449 
     230    24.325318    120315.27    32551.819    158768.53    4820.8188 
     240    30.626785    118739.76    32580.876    158750.85    4778.2691 
     250    40.172929    116298.88    32633.784    158678.82    4711.6778 
     260    54.143556     112669.1    32728.495     158533.1    4611.6362 
     270    72.307498     107803.8    32895.762    158241.73    4475.0349 
     280    96.694218    101065.65    33187.319    157711.48    4282.2562 
     290    127.13949    92255.004    33668.905     156768.6     4023.049 
     300    161.86541    81494.728    34334.652    155098.76    3697.0528 
Loop time of 2.3369 on 32 procs for 100 steps with 81390 atoms

Performance: 3.697 ns/day, 6.491 hours/ns, 42.792 timesteps/s
90.9% CPU use with 4 MPI tasks x 8 OpenMP threads

MPI task timing breakdown:
Section |  min time  |  avg time  |  max time  |%varavg| %total
---------------------------------------------------------------
Pair    | 0.1419     | 0.9321     | 2.0117     |  84.1 | 39.89
Bond    | 1.2875e-05 | 0.018928   | 0.044664   |  14.2 |  0.81
Neigh   | 0          | 0          | 0          |   0.0 |  0.00
Comm    | 0.11175    | 1.105      | 2.017      |  68.2 | 47.29
Output  | 0.0054691  | 0.0060474  | 0.0065784  |   0.5 |  0.26
Modify  | 0.044448   | 0.24561    | 0.66062    |  49.0 | 10.51
Other   |            | 0.02921    |            |       |  1.25

Nlocal:    20347.5 ave 37488 max 7998 min
Histogram: 2 0 0 0 0 0 1 0 0 1
Nghost:    6571.5 ave 12300 max 2400 min
Histogram: 2 0 0 0 0 0 1 0 0 1
Neighs:    1.0848e+06 ave 2.31274e+06 max 216109 min
Histogram: 2 0 0 0 0 0 1 0 0 1

Total # of neighbors = 4339190
Ave neighs/atom = 53.3136
Ave special neighs/atom = 1.05013
Neighbor list builds = 0
Dangerous builds = 0

###########################################################
############### Post parameters############################
reset_timestep  	0
compute 		bins ham chunk/atom bin/3d x 130.0 4 y 0.0 4.08 z 11.79 4.312 bound 			x 130.0 500.0 bound y 0.0 121.83 bound z 11.79 98.0
fix  			d ham ave/chunk 1 1 10 bins density/number norm sample 			file bond_bins_dens.dat
thermo_style    	custom step temp pe etotal
thermo_modify	        temp myTemp
WARNING: Temperature for thermo pressure is not for group all (../thermo.cpp:485)
thermo			100
fix            		extra ham print 1000 "$(step) $(temp) $(pe)" append iteration_info.dat 			screen no

#restart     		100000 water.restart.mpiio
dump			1 all custom 200 longlong_bond_sandwich.dat id type x y z
run			250000
Per MPI rank memory allocation (min/avg/max) = 26.57 | 36.37 | 51.97 Mbytes
Step Temp PotEng TotEng 
       0    269.74474    115829.38    155098.76 
     100    312.29408    49114.123    94577.827 
     200    203.73235    39748.697    69408.009 
     300      165.599     31685.15    55793.016 
     400    124.67986    24220.513     42371.38 
     500    95.448844    18311.231    32206.653 
     600    75.903451    13663.826    24713.833 
     700    62.593171    10067.411    19179.711 
     800    54.003301    7108.9863    14970.775 
     900    47.530574    4747.7168    11667.207 
    1000    42.910962    2790.5094     9037.478 
    1100    39.873094    1088.8802    6893.5964 
    1200    37.522269   -356.90331    5105.5804 
    1300    35.947782   -1629.8235    3603.4468 
    1400    35.087528   -2789.9214    2318.1132 
    1500    34.497066   -3839.3462    1182.7291 
    1600     34.27815   -4842.9455    147.26012 
    1700    34.079191   -5778.3558   -817.11458 
    1800    33.954042   -6672.6828   -1729.6607 
    1900    33.734943   -7504.4645   -2593.3388 
    2000    33.367001   -8248.6265   -3391.0658 
    2100    33.309039   -8942.6613   -4093.5387 
    2200    33.369668   -9593.7825   -4735.8334 
    2300    33.126522   -10168.572     -5346.02 
    2400    33.124839   -10725.948   -5903.6408 
    2500     33.14367   -11241.018   -6415.9702 
    2600    33.195453   -11729.637   -6897.0504 
    2700    32.910527   -12150.587   -7359.4797 
    2800    32.718466   -12513.765   -7750.6177 
    2900    33.116682   -12886.634   -8065.5151 
    3000    32.873096   -13151.386   -8365.7278 
    3100    33.142882   -13458.942   -8634.0086 
    3200    32.986588   -13721.989   -8919.8086 
    3300    32.954207   -13989.607   -9192.1404 
    3400    33.008914   -14257.533   -9452.1022 
    3500     33.03681   -14518.091   -9708.5998 
    3600    33.019018   -14773.344   -9966.4427 
    3700    32.929423   -15001.276   -10207.418 
    3800    32.884495   -15222.023   -10434.705 
    3900      33.1363   -15471.046   -10647.071 
    4000    33.033265    -15682.64   -10873.665 
    4100    32.782198   -15858.076   -11085.651 
    4200    33.049162   -16075.585   -11264.296 
    4300    33.109597   -16275.866   -11455.778 
    4400    32.911729   -16463.661   -11672.378 
    4500    33.032914   -16666.653   -11857.728 
    4600    33.078754   -16860.174   -12044.576 
    4700    33.026833   -17053.628   -12245.589 
    4800    33.029076   -17280.686    -12472.32 
    4900     32.85685   -17477.844   -12694.551 
    5000    32.839797   -17653.211   -12872.401 
    5100    33.149651   -17841.456   -13015.537 
    5200    33.015669   -17988.454    -13182.04 
    5300    33.018642   -18150.989   -13344.142 
    5400    33.003693   -18315.542   -13510.872 
    5500     33.11739   -18498.961   -13677.739 
    5600    33.175022   -18711.174   -13881.561 
    5700    32.908948   -18899.121   -14108.244 
    5800    32.828644   -19079.705   -14300.519 
    5900    33.142248   -19288.064   -14463.222 
    6000     33.16681   -19477.235   -14648.818 
    6100    32.974848   -19665.359   -14864.888 
    6200    32.984875   -19878.105   -15076.174 
    6300     33.08368   -20108.956   -15292.641 
    6400    33.104907   -20341.713   -15522.308 
    6500    32.971834   -20569.736   -15769.703 
    6600    33.145342   -20839.256   -16013.964 
    6700    32.857593   -21053.603   -16270.201 
    6800    33.010717   -21293.325   -16487.632 
    6900    33.147926   -21529.104   -16703.436 
    7000    33.030577    -21756.18   -16947.596 
    7100    33.127107   -22020.123   -17197.486 
    7200    33.182991   -22308.374   -17477.602 
    7300    32.860686   -22570.663   -17786.811 
    7400     33.04428    -22865.39   -18054.811 
    7500    32.969466   -23120.298   -18320.611 
    7600     33.14385     -23400.4   -18575.326 
    7700    33.166207    -23688.84   -18860.511 
    7800    33.055138   -23986.553   -19174.394 
    7900    32.917911   -24273.831   -19481.649 
    8000    33.166126   -24586.634   -19758.317 
    8100    33.013411   -24856.834   -20050.749 
    8200    33.143297   -25174.004    -20349.01 
    8300    33.042822   -25472.299   -20661.932 
    8400    33.030535   -25779.926   -20971.348 
    8500    32.911184   -26059.213    -21268.01 
    8600    33.139589    -26363.81   -21539.356 
    8700    33.142944   -26659.231   -21834.288 
    8800    32.970112   -26948.103   -22148.322 
    8900    32.882462   -27229.046   -22442.024 
    9000    32.991593   -27498.072   -22695.163 
    9100    33.145055   -27760.887   -22935.637 
    9200    33.130057   -28025.368   -23202.301 
    9300     32.97403   -28286.206   -23485.854 
    9400     32.89867   -28544.239   -23754.858 
    9500    32.986844   -28790.973   -23988.756 
    9600    33.183652   -29044.621   -24213.752 
    9700    32.850166   -29247.083   -24464.764 
    9800    32.981413   -29483.735   -24682.308 
    9900    33.019401   -29692.591   -24885.634 
   10000    32.926187   -29878.227    -25084.84 
   10100    33.041298   -30074.895    -25264.75 
   10200    32.880909   -30230.433   -25443.638 
   10300    32.925535   -30383.975   -25590.683 
   10400    33.137393   -30546.032   -25721.898 
   10500    32.835306   -30649.702   -25869.545 
   10600    32.965707   -30776.689   -25977.549 
   10700    32.972638   -30869.779    -26069.63 
   10800    33.085113    -30979.26   -26162.736 
   10900    32.983229   -31075.531   -26273.839 
   11000    32.800576   -31151.596   -26376.496 
   11100     32.91854   -31224.881   -26432.607 
   11200    32.968348   -31262.159   -26462.635 
   11300    33.192685   -31318.916   -26486.732 
   11400    32.927541   -31345.297   -26551.713 
   11500    32.791945   -31375.909   -26602.065 
   11600    33.007304    -31405.68   -26600.483 
   11700    33.149141   -31424.169   -26598.324 
   11800    32.863255   -31412.592   -26628.366 
   11900    32.934672   -31424.559   -26629.937 
   12000    33.026272   -31419.341   -26611.384 
   12100    32.998248   -31402.294   -26598.416 
   12200    33.021346   -31390.697   -26583.457 
   12300    33.042119   -31386.558   -26576.294 
   12400    32.857368   -31358.919    -26575.55 
   12500    32.849387   -31321.757    -26539.55 
   12600    33.124564   -31292.233   -26469.967 
   12700    33.016993   -31226.755   -26420.148 
   12800    33.097207   -31202.497   -26384.213 
   12900    32.914736   -31160.297   -26368.577 
   13000     33.18325   -31174.004   -26343.194 
   13100    32.951404   -31150.118    -26353.06 
   13200    32.791075   -31125.824   -26352.106 
   13300    33.060359   -31113.893   -26300.974 
   13400    32.996703    -31055.76   -26252.107 
   13500    33.004508   -31012.218   -26207.429 
   13600    33.106472    -30988.23   -26168.597 
   13700      33.0087   -30956.447   -26151.048 
   13800    33.031424   -30954.478    -26145.77 
   13900    32.848948   -30927.307   -26145.164 
   14000    32.977045   -30914.345   -26113.554 
   14100    33.163375   -30903.576    -26075.66 
   14200    32.930635   -30864.622   -26070.587 
   14300    33.006556   -30862.564   -26057.477 
   14400    33.054704   -30858.659   -26046.563 
   14500    32.973878   -30852.753   -26052.423 
   14600    32.905387   -30839.427   -26049.068 
   14700    32.935933   -30810.289   -26015.483 
   14800    33.150164   -30797.944   -25971.951 
   14900    33.183359   -30798.238   -25967.412 
   15000    32.927502   -30803.698   -26010.119 
   15100     32.75147   -30802.549   -26034.597 
   15200       33.011   -30801.906   -25996.172 
   15300    33.128232   -30778.443   -25955.642 
   15400    33.140453   -30780.461   -25955.881 
   15500    32.971496   -30790.802   -25990.819 
   15600    32.807446    -30786.98    -26010.88 
   15700    33.050016    -30797.86   -25986.446 
   15800    33.164467   -30798.984   -25970.908 
   15900     33.03332   -30803.384   -25994.401 
   16000    32.822462   -30804.227   -26025.941 
   16100    33.002639   -30824.066   -26019.549 
   16200    32.944437   -30795.637   -25999.593 
   16300    33.204604   -30817.113   -25983.194 
   16400    32.882133   -30793.775   -26006.801 
   16500    32.865404   -30790.148   -26005.609 
   16600    33.183263   -30803.709   -25972.897 
   16700    33.140253   -30804.528   -25979.977 
   16800    32.942935   -30823.012   -26027.187 
   16900    33.086841   -30884.699   -26067.924 
   17000    32.713624   -30872.185   -26109.743 
   17100    32.930564   -30886.991   -26092.967 
   17200    33.130872   -30873.693   -26050.508 
   17300    33.243751   -30887.257   -26047.639 
   17400    32.909323   -30888.222    -26097.29 
   17500    32.957418   -30930.689   -26132.755 
   17600    32.981338   -30960.515   -26159.099 
   17700    32.826687   -30950.601   -26171.699 
   17800    33.052897   -30952.117   -26140.284 
   17900    33.249312   -30969.062   -26128.634 
   18000    33.053686   -30988.062   -26176.113 
   18100    32.823113   -31010.576   -26232.194 
   18200    32.910924   -31039.199   -26248.034 
   18300    32.974924   -31040.647   -26240.164 
   18400    33.161356   -31055.073    -26227.45 
   18500    33.132825   -31074.976   -26251.506 
   18600    32.850812   -31086.632   -26304.218 
   18700     32.83355   -31090.751    -26310.85 
   18800    33.190657   -31111.942   -26280.053 
   18900    33.026204    -31094.79   -26286.843 
   19000      33.2129   -31148.225   -26313.099 
   19100    32.720773    -31139.39   -26375.907 
   19200    32.922203   -31178.713   -26385.905 
   19300     33.04161    -31176.64    -26366.45 
   19400    33.145815   -31185.593   -26360.232 
   19500    32.979936   -31188.091    -26386.88 
   19600    32.959453   -31212.049   -26413.819 
   19700    32.994753   -31235.442   -26432.073 
   19800    32.990422   -31249.204   -26446.465 
   19900    32.997206   -31261.712   -26457.986 
   20000    32.995193   -31274.057   -26470.624 
   20100    33.019355   -31290.442   -26483.492 
   20200    33.071487   -31316.879   -26502.339 
   20300    32.884017   -31322.199   -26534.951 
   20400    32.896881   -31330.144   -26541.023 
   20500     33.11717   -31340.598   -26519.408 
   20600    33.239393   -31369.371   -26530.387 
   20700    32.865529   -31381.952   -26597.396 
   20800    32.851581   -31420.486    -26637.96 
   20900    32.906827   -31425.417   -26634.849 
   21000    33.112834   -31429.272   -26608.713 
   21100     33.06909   -31419.518   -26605.327 
   21200    33.030684   -31436.578   -26627.978 
   21300    32.938221   -31450.134   -26654.995 
   21400    33.042966   -31480.119   -26669.732 
   21500    32.933342   -31488.646   -26694.218 
   21600    32.906155   -31497.569   -26707.098 
   21700    33.185824   -31531.418   -26700.233 
   21800    33.089502   -31549.162       -26732 
   21900    32.800863   -31554.444   -26779.302 
   22000      33.0105    -31588.99   -26783.329 
   22100    32.963277    -31582.39   -26783.603 
   22200    33.102432   -31598.218   -26779.173 
   22300    33.025674   -31605.978   -26798.108 
   22400    33.077712   -31647.403   -26831.957 
   22500     32.94547   -31677.388   -26881.193 
   22600    32.693417   -31668.621    -26909.12 
   22700    33.142006   -31696.337   -26871.531 
   22800    33.153385    -31683.78   -26857.318 
   22900    32.990413   -31688.835   -26886.098 
   23000    33.039221   -31734.435   -26924.593 
   23100    32.797764   -31737.299   -26962.608 
   23200    33.083323   -31778.789   -26962.526 
   23300    32.929704   -31762.737   -26968.838 
   23400    32.942803   -31757.647   -26961.841 
   23500    33.326109   -31802.024   -26950.416 
   23600    32.898198   -31791.023    -27001.71 
   23700    32.904212   -31828.404   -27038.216 
   23800    32.995265   -31854.769   -27051.325 
   23900    33.015536   -31866.259   -27059.865 
   24000    32.904164   -31859.493   -27069.312 
   24100     33.04779   -31871.447   -27060.357 
   24200    33.167638   -31889.564   -27061.027 
   24300    32.835167   -31882.881   -27102.744 
   24400    32.943292   -31908.758   -27112.881 
   24500    33.076259   -31920.588   -27105.353 
   24600    32.834426    -31888.05   -27108.022 
   24700    33.139077   -31907.797   -27083.418 
   24800    33.317699    -31949.43   -27099.046 
   24900    32.965001   -31983.166   -27184.128 
   25000    32.699992   -32024.564   -27264.107 
   25100    32.725858   -32028.866   -27264.643 
   25200    33.105943   -32019.785   -27200.229 
   25300    33.286086   -32006.015   -27160.234 
   25400    33.111117   -32012.388   -27192.079 
   25500    32.843263   -32043.433   -27262.118 
   25600     32.82068   -32072.303   -27294.275 
   25700    33.052383   -32092.453   -27280.694 
   25800    33.022188   -32081.371   -27274.008 
   25900    33.102396   -32102.699   -27283.659 
   26000    32.909429   -32102.447     -27311.5 
   26100    32.959067   -32120.224    -27322.05 
   26200    33.052801   -32133.359   -27321.539 
   26300    32.957976   -32129.321   -27331.306 
   26400    32.915678   -32127.633   -27335.776 
   26500    33.061006   -32133.235   -27320.221 
   26600    33.206113   -32152.149   -27318.011 
   26700    32.935517   -32158.346   -27363.601 
   26800    32.947003   -32196.855   -27400.438 
   26900    32.890647   -32209.141   -27420.928 
   27000    32.901895   -32202.758   -27412.907 
   27100     33.23187   -32219.343   -27381.455 
   27200    33.080355   -32217.519   -27401.688 
   27300    32.912393   -32236.177   -27444.798 
   27400    33.081486   -32293.203   -27477.207 
   27500    32.656795   -32264.972   -27510.803 
   27600     33.15482   -32302.548   -27475.877 
   27700     33.22772   -32312.175   -27474.891 
   27800     32.89652   -32317.168     -27528.1 
   27900    32.805958   -32330.611   -27554.727 
   28000    33.145717   -32365.747     -27540.4 
   28100     33.18136   -32389.308   -27558.773 
   28200    32.702913   -32369.683     -27608.8 
   28300    33.031872   -32409.948   -27601.176 
   28400    33.098654   -32413.766   -27595.271 
   28500    32.865521   -32393.327   -27608.772 
   28600    33.087069   -32419.434   -27602.626 
   28700    33.116457   -32439.518   -27618.431 
   28800    32.918511   -32453.948   -27661.679 
   28900    32.907411   -32479.426   -27688.772 
   29000    32.940808   -32486.999   -27691.483 
   29100    33.127219   -32509.064   -27686.411 
   29200    32.922007   -32495.684   -27702.905 
   29300    32.907772   -32495.543   -27704.837 
   29400    33.088696    -32502.88   -27685.835 
   29500    33.092608   -32510.592   -27692.978 
   29600    32.896939    -32514.18   -27725.051 
   29700    32.951848   -32530.422   -27733.299 
   29800    32.969479   -32519.071   -27719.381 
   29900    33.274326   -32551.662   -27707.593 
   30000     32.85789   -32536.197   -27752.753 
   30100    33.014904   -32584.932   -27778.629 
   30200    32.855924    -32573.96   -27790.802 
   30300    33.106691   -32598.953   -27779.288 
   30400     32.92302   -32573.146    -27780.22 
   30500    33.095254   -32588.671   -27770.671 
   30600    33.055692   -32588.953   -27776.713 
   30700    33.009843   -32602.054   -27796.488 
   30800    32.926205   -32613.327   -27819.937 
   30900    32.972072   -32623.387    -27823.32 
   31000    33.113192   -32633.798   -27813.187 
   31100    32.861532   -32609.701   -27825.727 
   31200    33.119846   -32642.618   -27821.038 
   31300    33.116391   -32659.858   -27838.781 
   31400    32.806944   -32653.921   -27877.893 
   31500    33.021274   -32686.039   -27878.809 
   31600    32.912808   -32663.058   -27871.618 
   31700    33.186472   -32689.711   -27858.432 
   31800    32.954284   -32677.518   -27880.041 
   31900    33.116921   -32729.121   -27907.967 
   32000    32.925721   -32751.586   -27958.267 
   32100     32.79319   -32761.697   -27987.672 
   32200    32.993538   -32770.426   -27967.234 
   32300    33.244567   -32790.959   -27951.223 
   32400    32.853006   -32756.935   -27974.201 
   32500    33.063536    -32789.98   -27976.597 
   32600    32.931115   -32778.152   -27984.048 
   32700    33.214674   -32823.194   -27987.809 
   32800    32.907668   -32823.152   -28032.461 
   32900    32.794847   -32830.754   -28056.487 
   33000    33.058951   -32843.449   -28030.734 
   33100    33.036488   -32819.914    -28010.47 
   33200    33.065778   -32821.764   -28008.055 
   33300     33.05942   -32841.653   -28028.869 
   33400    32.928191   -32859.634   -28065.955 
   33500    32.965978   -32886.796   -28087.616 
   33600    33.083558   -32919.446   -28103.149 
   33700    32.764934   -32892.952    -28123.04 
   33800    33.151026   -32927.336   -28101.217 
   33900    33.031684   -32916.829   -28108.084 
   34000     32.87887   -32903.659   -28117.161 
   34100    33.100932   -32916.925   -28098.099 
   34200    33.139408   -32927.594   -28103.166 
   34300    32.890973   -32926.357   -28138.096 
   34400    33.001757    -32958.94   -28154.552 
   34500    32.975613   -32968.214   -28167.631 
   34600    32.836731   -32955.019   -28174.655 
   34700    33.152707   -32980.781   -28154.417 
   34800    32.981897   -32955.774   -28154.276 
   34900    33.047782   -32967.434   -28156.346 
   35000    32.888318   -32954.882   -28167.008 
   35100    33.153366    -32989.08   -28162.621 
   35200    32.938007   -32979.954   -28184.846 
   35300    32.802126   -32967.366    -28192.04 
   35400    33.266358   -33004.606   -28161.697 
   35500    33.116872   -33014.462   -28193.315 
   35600    32.740915    -33017.29   -28250.875 
   35700    32.832064   -33021.317   -28241.633 
   35800    33.245924   -33033.425   -28193.491 
   35900    32.970658   -32987.926   -28188.065 
   36000    33.074413   -33006.466     -28191.5 
   36100      32.9502   -33005.648   -28208.765 
   36200    32.995428   -33021.253   -28217.786 
   36300    32.999093   -33022.999   -28218.999 
   36400    33.067873   -33037.966   -28223.952 
   36500    32.945563   -33040.089   -28243.881 
   36600      32.9901   -33050.796   -28248.104 
   36700    33.087673   -33069.611   -28252.715 
   36800    33.017096   -33086.333   -28279.712 
   36900     32.83919   -33087.143   -28306.421 
   37000    33.020129   -33105.434   -28298.371 
   37100    33.082906   -33112.522    -28296.32 
   37200    32.925257   -33107.719   -28314.467 
   37300    32.975292   -33111.988   -28311.452 
   37400    32.939127   -33091.506   -28296.235 
   37500    33.257456   -33121.055   -28279.442 
   37600     33.02274    -33126.68   -28319.237 
   37700    32.784443   -33147.015   -28374.263 
   37800     32.93525   -33173.125   -28378.419 
   37900    33.025263   -33167.546   -28359.735 
   38000     32.97871   -33147.314   -28346.281 
   38100    33.211026   -33171.977   -28337.124 
   38200    32.986479   -33172.863   -28370.699 
   38300    32.939646    -33205.38   -28410.033 
   38400    32.899901    -33216.86   -28427.299 
   38500    32.889591    -33203.32   -28415.261 
   38600    32.970139   -33171.085     -28371.3 
   38700    33.335289   -33181.442   -28328.497 
   38800    33.070015   -33170.132   -28355.807 
   38900    32.910543   -33202.311   -28411.201 
   39000    32.750094   -33208.798   -28441.046 
   39100    33.120427   -33237.628   -28415.964 
   39200    33.123461   -33234.566    -28412.46 
   39300    32.877744   -33225.027   -28438.692 
   39400    33.014644   -33252.015    -28445.75 
   39500    33.067844   -33266.982   -28452.972 
   39600    32.745497    -33231.11   -28464.028 
   39700    33.108169    -33241.88       -28422 
   39800    33.123343    -33226.84   -28404.751 
   39900    33.013254   -33233.963   -28427.901 
   40000    32.994808    -33260.24   -28456.863 
   40100    32.763289   -33247.732   -28478.059 
   40200     32.98579   -33246.417   -28444.353 
   40300    33.215959   -33247.285   -28411.713 
   40400    32.928489   -33221.693   -28427.971 
   40500    32.961811   -33225.763    -28427.19 
   40600    33.236235   -33265.115   -28426.591 
   40700    32.845731   -33256.265   -28474.591 
   40800    32.909033   -33281.062   -28490.173 
   40900    32.977337   -33279.225   -28478.391 
   41000    33.173386   -33295.247   -28465.873 
   41100    32.939542     -33277.3   -28481.969 
   41200    33.011666   -33300.243   -28494.411 
   41300    33.020286   -33317.567   -28510.481 
   41400    32.785346   -33287.447   -28514.563 
   41500    33.201029   -33313.738   -28480.339 
   41600    32.980377    -33285.62   -28484.344 
   41700    33.097721   -33311.264   -28492.905 
   41800    32.978308   -33320.167   -28519.192 
   41900    32.725689   -33303.066   -28538.868 
   42000    33.131864   -33323.006   -28499.676 
   42100    33.159829   -33310.475   -28483.074 
   42200    32.894078   -33296.817   -28508.105 
   42300     33.03645   -33320.038   -28510.599 
   42400    32.907319   -33310.876   -28520.235 
   42500    32.980302   -33322.759   -28521.494 
   42600    33.018997   -33316.334   -28509.436 
   42700    33.119724   -33327.354   -28505.792 
   42800    32.945247   -33322.098   -28525.936 
   42900     32.87877   -33319.497   -28533.012 
   43000     33.00299   -33320.093   -28515.525 
   43100    33.105171   -33314.162   -28494.718 
   43200    33.076308   -33309.897   -28494.655 
   43300     33.01535    -33329.74   -28523.373 
   43400    33.010484   -33365.079    -28559.42 
   43500    32.853897   -33375.095   -28592.231 
   43600    32.774799   -33359.813   -28588.464 
   43700    33.163996   -33355.684   -28527.677 
   43800     33.28277   -33350.263   -28504.964 
   43900    32.951882   -33353.616   -28556.488 
   44000     32.76892   -33367.234   -28596.742 
   44100    32.879736   -33367.782   -28581.158 
   44200    33.088136   -33349.233   -28532.269 
   44300    33.097251    -33318.26    -28499.97 
   44400     33.31877   -33359.006   -28508.466 
   44500    32.902348   -33375.731   -28585.814 
   44600    32.766643   -33412.902   -28642.741 
   44700    32.931646   -33432.896   -28638.714 
   44800    32.993424   -33413.108   -28609.932 
   44900    33.110765   -33410.082   -28589.824 
   45000    33.107403   -33416.605   -28596.836 
   45100    32.867412   -33407.239   -28622.408 
   45200    33.073349   -33435.835   -28621.024 
   45300    33.041685   -33442.545   -28632.344 
   45400    32.995513   -33463.189   -28659.709 
   45500    32.775806   -33449.414   -28677.919 
   45600    33.107307   -33476.838   -28657.084 
   45700    33.132519   -33477.046   -28653.621 
   45800    32.928343   -33481.723   -28688.022 
   45900    32.837868   -33479.536   -28699.007 
   46000    33.117679   -33496.909   -28675.645 
   46100    32.913091   -33466.452   -28674.972 
   46200     32.98194   -33457.722   -28656.218 
   46300    33.271751   -33489.524    -28645.83 
   46400    32.754864   -33451.854   -28683.408 
   46500    33.094553   -33496.763   -28678.865 
   46600    32.997104    -33492.34   -28688.629 
   46700    32.887041   -33489.744   -28702.056 
   46800    33.076294   -33510.901   -28695.661 
   46900    32.883805   -33481.864   -28694.646 
   47000    33.121762   -33500.806   -28678.947 
   47100    33.020033    -33490.37   -28683.321 
   47200    33.066415   -33509.034   -28695.232 
   47300    32.791761   -33492.216   -28718.399 
   47400     33.06576    -33519.39   -28705.684 
   47500    33.073517   -33517.686   -28702.851 
   47600    32.947286   -33516.745   -28720.286 
   47700    33.005195   -33530.264   -28725.375 
   47800    33.029093   -33539.373   -28731.005 
   47900    33.048518   -33558.581   -28747.385 
   48000    32.814165   -33541.854   -28764.775 
   48100    33.119692   -33564.431   -28742.873 
   48200    32.983113   -33542.586   -28740.911 
   48300    33.029403   -33557.595   -28749.182 
   48400    32.787867   -33520.402   -28747.151 
   48500     33.22503   -33553.627   -28716.735 
   48600    32.939648   -33514.636   -28719.289 
   48700    33.197265   -33561.521    -28728.67 
   48800      32.7381   -33534.782   -28768.776 
   48900    33.084288   -33579.099   -28762.696 
   49000    32.930751   -33556.784   -28762.732 
   49100    33.103888   -33573.345   -28754.088 
   49200    32.912751   -33551.823   -28760.392 
   49300    33.075343   -33575.722    -28760.62 
   49400    32.895049   -33555.053   -28766.199 
   49500    32.922167    -33544.24   -28751.438 
   49600    33.150152   -33538.409   -28712.417 
   49700    33.345597    -33567.58   -28713.135 
   49800    32.785732   -33565.256   -28792.316 
   49900    32.695446   -33586.079   -28826.283 
   50000    33.012134   -33586.217   -28780.318 
   50100     33.31188   -33588.354   -28738.818 
   50200    32.903553    -33556.51   -28766.418 
   50300    32.917072   -33577.032   -28784.972 
   50400    33.070965   -33597.747   -28783.283 
   50500    33.019228   -33604.278   -28797.346 
   50600    32.816833   -33588.947    -28811.48 
   50700    33.075669   -33603.355   -28788.206 
   50800    33.201195   -33613.405   -28779.982 
   50900    32.839604     -33597.6   -28816.818 
   51000    32.795643   -33591.042    -28816.66 
   51100     33.12108   -33587.515   -28765.755 
   51200    33.069069   -33545.965   -28731.777 
   51300     33.10687   -33548.612   -28728.921 
   51400    33.007148   -33562.388   -28757.214 
   51500    33.005123   -33594.931   -28790.052 
   51600    32.768375   -33584.445   -28814.032 
   51700    32.992079   -33588.943   -28785.963 
   51800    33.217943   -33588.921    -28753.06 
   51900    33.032686   -33581.646   -28772.755 
   52000    32.907845   -33596.944   -28806.227 
   52100    32.995523   -33626.597   -28823.116 
   52200    32.830842   -33607.231   -28827.724 
   52300    33.137672   -33619.088   -28794.913 
   52400    33.251065   -33633.269   -28792.586 
   52500    32.673828   -33591.784   -28835.136 
   52600    33.049628   -33633.424   -28822.067 
   52700    33.083645    -33623.73    -28807.42 
   52800    33.084125   -33633.664   -28817.284 
   52900    32.905603   -33636.336   -28845.946 
   53000    32.836388   -33630.311   -28849.996 
   53100     33.10397   -33636.617   -28817.348 
   53200    33.047603   -33620.497   -28809.434 
   53300    32.898125   -33600.491   -28811.189 
   53400    33.071907   -33602.862   -28788.261 
   53500    33.199144   -33618.258   -28785.134 
   53600    32.878288   -33608.503   -28822.089 
   53700    32.882943   -33625.575   -28838.484 
   53800    32.953754   -33616.003   -28818.603 
   53900    33.128459   -33615.251   -28792.417 
   54000    33.033485   -33609.126   -28800.119 
   54100    33.084129    -33638.41    -28822.03 
   54200    32.832856   -33631.823   -28852.023 
   54300    32.960721   -33641.594   -28843.179 
   54400    33.152866   -33655.485   -28829.098 
   54500    32.915212   -33631.609    -28839.82 
   54600    32.983303   -33638.658   -28836.956 
   54700    33.134616   -33657.197   -28833.467 
   54800    32.877287   -33639.526   -28853.257 
   54900    32.916325   -33643.624   -28851.673 
   55000    33.047633   -33644.904   -28833.837 
   55100    32.864177   -33602.893   -28818.534 
   55200    33.258006   -33623.035   -28781.341 
   55300    33.105375   -33619.013   -28799.539 
   55400    32.844186   -33622.543   -28841.094 
   55500    33.089255   -33673.214   -28856.087 
   55600    32.820311   -33661.499   -28883.525 
   55700    32.932273   -33670.532   -28876.259 
   55800    33.090144   -33665.898   -28848.642 
   55900    33.011552   -33645.724    -28839.91 
   56000    32.935587   -33634.415   -28839.659 
   56100    33.153905   -33655.468    -28828.93 
   56200    33.080275   -33663.642   -28847.823 
   56300    32.755426   -33650.416   -28881.888 
   56400    33.027008   -33668.689   -28860.625 
   56500    33.191947   -33679.906    -28847.83 
   56600    32.826983   -33656.205    -28877.26 
   56700    33.040593   -33687.634   -28877.591 
   56800    33.028647   -33688.348   -28880.044 
   56900    33.076981    -33706.65    -28891.31 
   57000    32.877315   -33699.131   -28912.859 
   57100    32.978453   -33711.763   -28910.767 
   57200    32.841616   -33670.268   -28889.192 
   57300    33.200863   -33674.297   -28840.923 
   57400    33.224651    -33678.72   -28841.882 
   57500    32.936154   -33696.525   -28901.687 
   57600    32.818727   -33731.205   -28953.462 
   57700    32.817303   -33738.492   -28960.956 
   57800    33.067847   -33726.603   -28912.593 
   57900    33.138664   -33702.223   -28877.904 
   58000    33.109054    -33700.44   -28880.431 
   58100    32.946613   -33694.129   -28897.769 
   58200    32.874778   -33691.211   -28905.308 
   58300    33.017052   -33693.237   -28886.622 
   58400     33.07371   -33680.387   -28865.524 
   58500    33.061215   -33680.615   -28867.571 
   58600    32.914191   -33672.581    -28880.94 
   58700    33.051812   -33693.153   -28881.478 
   58800    33.037382   -33706.238   -28896.663 
   58900    32.853843    -33693.91   -28911.054 
   59000    32.958353   -33687.959   -28889.889 
   59100    33.231624   -33701.088   -28863.235 
   59200    32.945414    -33683.34   -28887.154 
   59300    32.919898   -33700.542    -28908.07 
   59400    32.961824    -33702.24   -28903.664 
   59500    33.020743   -33693.854   -28886.702 
   59600    33.130907   -33704.394   -28881.204 
   59700    32.971702   -33708.708   -28908.695 
   59800    32.879549    -33720.04   -28933.443 
   59900    33.039673   -33741.339   -28931.431 
   60000    33.011481   -33734.553   -28928.749 
   60100    32.942827   -33725.748   -28929.938 
   60200    33.080458   -33742.219   -28926.373 
   60300    32.985698   -33746.358   -28944.308 
   60400    32.883635   -33741.752    -28954.56 
   60500    32.960036   -33733.158   -28934.843 
   60600    32.997101   -33702.334   -28898.623 
   60700    33.233004   -33710.494    -28872.44 
   60800    33.004063   -33711.404   -28906.679 
   60900    32.836679   -33719.027    -28938.67 
   61000    33.150588   -33766.099   -28940.044 
   61100    32.731844   -33720.686   -28955.592 
   61200    33.028777   -33731.022     -28922.7 
   61300    33.156085   -33721.436    -28894.58 
   61400    33.076894   -33721.184   -28905.857 
   61500    32.939003   -33733.171   -28937.918 
   61600    32.963506   -33752.739   -28953.919 
   61700    32.984915   -33761.229   -28959.293 
   61800    32.788539   -33728.082   -28954.734 
   61900    33.251375   -33757.165   -28916.437 
   62000     33.05875   -33741.508   -28928.822 
   62100    32.877989   -33750.444   -28964.073 
   62200    33.013178   -33775.732   -28969.681 
   62300    32.958262   -33771.192   -28973.135 
   62400    32.997992    -33782.62    -28978.78 
   62500    32.982068   -33779.412    -28977.89 
   62600    32.984856   -33773.626   -28971.697 
   62700    32.933964   -33758.836   -28964.317 
   62800    33.022011   -33755.278    -28947.94 
   62900    33.057071   -33749.196   -28936.754 
   63000    32.984105       -33744   -28942.181 
   63100    33.140445   -33774.269    -28949.69 
   63200    32.921808    -33770.89    -28978.14 
   63300    32.856843   -33774.215   -28990.923 
   63400    32.968065   -33768.121   -28968.637 
   63500    33.013625   -33742.734   -28936.617 
   63600     33.15558   -33739.266   -28912.484 
   63700    33.135552   -33755.625   -28931.759 
   63800     32.85881   -33766.084   -28982.505 
   63900    32.877848   -33786.304   -28999.954 
   64000    33.028929   -33792.799   -28984.455 
   64100    32.933766   -33762.003   -28967.512 
   64200    33.108151    -33763.63   -28943.752 
   64300    33.097214   -33759.791   -28941.506 
   64400    33.018611   -33777.579   -28970.737 
   64500    32.885372   -33788.711   -29001.266 
   64600    32.887114   -33786.724   -28999.025 
   64700    33.057618   -33788.045   -28975.524 
   64800    33.057623   -33777.659   -28965.137 
   64900    33.008406   -33771.711   -28966.355 
   65000    33.121512   -33792.193   -28970.371 
   65100    32.920716    -33791.89     -28999.3 
   65200    32.822663   -33785.634   -29007.318 
   65300    33.031071   -33783.233   -28974.577 
   65400    33.138131   -33774.318   -28950.076 
   65500    33.104043    -33782.86    -28963.58 
   65600    32.950009   -33795.948   -28999.093 
   65700    32.983532   -33823.887   -29022.152 
   65800    32.873004   -33825.812   -29040.168 
   65900    32.882489   -33815.212   -29028.187 
   66000    33.031577   -33797.621   -28988.891 
   66100    33.183443   -33789.402   -28958.564 
   66200    33.092464   -33792.277   -28974.683 
   66300    32.793611   -33788.373   -29014.287 
   66400    33.050816   -33831.111    -29019.58 
   66500    32.949827   -33820.065   -29023.236 
   66600    33.041803   -33830.521   -29020.303 
   66700    32.907309   -33812.307   -29021.668 
   66800    32.979434    -33804.74   -29003.601 
   66900    33.013321   -33785.607   -28979.534 
   67000    33.194852   -33802.249    -28969.75 
   67100    32.981343   -33800.544   -28999.127 
   67200     33.03331   -33846.313   -29037.331 
   67300    32.714613    -33833.53   -29070.944 
   67400    32.983628   -33848.032   -29046.282 
   67500    33.136831   -33833.967   -29009.914 
   67600    33.069941   -33820.576   -29006.261 
   67700    32.891378   -33805.938   -29017.618 
   67800    32.963312    -33799.77   -29000.978 
   67900    33.052033   -33778.497   -28966.789 
   68000    33.188691   -33786.253    -28954.65 
   68100    32.933897   -33780.583   -28986.074 
   68200     33.10603   -33837.605   -29018.037 
   68300    32.837401   -33837.635   -29057.173 
   68400    32.844026   -33836.764   -29055.338 
   68500    33.145371   -33849.362   -29024.066 
   68600    33.038222    -33829.91   -29020.212 
   68700    32.869925    -33815.12   -29029.924 
   68800    33.048085   -33826.582   -29015.449 
   68900    33.262878    -33856.37   -29013.967 
   69000    32.776801   -33833.514   -29061.875 
   69100    32.829904   -33847.093   -29067.722 
   69200    33.200298   -33864.242    -29030.95 
   69300     33.15359   -33858.897   -29032.405 
   69400    32.970086   -33879.667   -29079.889 
   69500     32.78185    -33891.25   -29118.875 
   69600    32.880702   -33886.759   -29099.994 
   69700    33.196152   -33889.887   -29057.199 
   69800    33.022035    -33855.84   -29048.499 
   69900     33.05862   -33864.605   -29051.938 
   70000    33.081646   -33886.359    -29070.34 
   70100    32.846723   -33882.976   -29101.158 
   70200    32.883983    -33879.55   -29092.307 
   70300    33.242377    -33901.81   -29062.392 
   70400    32.905848   -33873.152   -29082.726 
   70500     32.83263   -33865.203   -29085.435 
   70600    33.149418   -33875.609   -29049.723 
   70700    33.038598   -33851.493   -29041.741 
   70800    33.002991   -33853.941   -29049.372 
   70900    32.984357   -33857.918   -29056.063 
   71000    33.149474   -33897.156   -29071.263 
   71100    32.968697   -33920.771   -29121.195 
   71200    32.641615   -33906.268   -29154.309 
   71300    33.001701   -33912.918   -29108.538 
   71400    33.249534   -33902.607   -29062.147 
   71500    33.000548   -33875.528   -29071.315 
   71600    33.094452   -33915.488   -29097.605 
   71700    32.885569   -33924.116   -29136.642 
   71800    33.023925   -33954.652   -29147.036 
   71900    32.884139   -33939.813   -29152.547 
   72000     33.03884   -33951.244   -29141.457 
   72100    32.994572   -33941.174   -29137.832 
   72200    33.105459   -33951.134   -29131.649 
   72300    32.973978   -33946.788   -29146.443 
   72400    32.909879   -33954.327   -29163.314 
   72500    32.999978   -33956.777   -29152.647 
   72600    32.991714   -33942.178   -29139.251 
   72700    33.035472   -33932.185   -29122.888 
   72800    33.114741   -33942.974   -29122.137 
   72900    32.936705    -33939.87   -29144.952 
   73000    32.956916    -33947.87   -29150.009 
   73100    32.993564   -33945.227   -29142.031 
   73200    33.203739   -33973.904   -29140.111 
   73300    32.854619   -33964.915   -29181.947 
   73400    32.699163   -33942.871   -29182.534 
   73500    33.252717   -33960.264   -29119.341 
   73600    33.175399   -33942.905   -29113.238 
   73700    32.882919   -33938.854   -29151.766 
   73800    33.004269   -33974.516   -29169.762 
   73900     32.79609   -33946.883   -29172.435 
   74000    33.113165   -33961.614   -29141.006 
   74100    33.026188   -33933.012   -29125.067 
   74200    33.122237   -33949.776   -29127.848 
   74300    32.973365   -33958.592   -29158.336 
   74400    32.831317   -33956.184   -29176.608 
   74500    33.086186   -33975.829   -29159.149 
   74600    33.061907   -33973.806   -29160.661 
   74700    33.088943   -34000.614   -29183.533 
   74800    32.851443   -33998.067   -29215.561 
   74900    32.794658   -33984.711   -29210.471 
   75000    33.304643   -34022.844   -29174.361 
   75100    32.828155   -33972.635   -29193.519 
   75200    32.869192   -33967.731   -29182.641 
   75300    33.176603   -33966.681   -29136.838 
   75400    33.135951   -33959.702   -29135.777 
   75500    32.974779   -33971.578   -29171.117 
   75600    32.988298   -34005.087   -29202.658 
   75700    33.011742    -34035.44   -29229.598 
   75800    32.643299   -34001.691   -29249.486 
   75900    33.075865   -34021.891   -29206.714 
   76000    33.014294   -33969.155   -29162.941 
   76100     33.15002   -33959.746   -29133.773 
   76200     33.09409   -33954.741   -29136.911 
   76300     33.10746    -33988.27   -29168.494 
   76400    32.832744   -34000.096   -29220.312 
   76500    32.969845    -34042.07   -29242.327 
   76600     32.85807   -34028.481    -29245.01 
   76700    33.031386   -34020.113   -29211.411 
   76800    33.199092    -34017.75   -29184.633 
   76900    33.059447   -34022.205   -29209.418 
   77000    32.714878   -34003.424     -29240.8 
   77100    33.051454    -34024.89   -29213.266 
   77200    33.170457   -34020.742   -29191.795 
   77300    33.058732   -34028.721   -29216.038 
   77400    32.966613   -34054.232    -29254.96 
   77500    32.908726   -34069.867   -29279.022 
   77600    32.795195   -34039.782   -29265.465 
   77700    33.245712   -34055.141   -29215.238 
   77800     33.05523   -34028.807   -29216.634 
   77900    33.056262   -34056.116   -29243.793 
   78000    32.870922   -34064.316   -29278.974 
   78100    32.810984   -34054.774   -29278.158 
   78200    33.230073   -34072.387   -29234.761 
   78300    32.952817   -34032.929   -29235.665 
   78400    32.971185   -34039.989   -29240.051 
   78500    32.957081   -34032.445    -29234.56 
   78600     33.00676   -34024.869   -29219.752 
   78700    33.190735   -34044.502   -29212.602 
   78800    32.887945   -34034.093   -29246.273 
   78900    33.069432    -34072.91    -29258.67 
   79000    32.874749   -34060.363   -29274.464 
   79100    32.764494   -34023.576   -29253.728 
   79200    33.359827   -34048.381   -29191.864 
   79300    33.070586   -34019.196   -29204.787 
   79400    32.963208    -34046.49   -29247.713 
   79500    32.967016   -34087.459   -29288.128 
   79600    32.809427   -34083.802   -29307.413 
   79700      32.9693   -34078.155   -29278.491 
   79800     33.07299   -34061.718   -29246.959 
   79900    33.002465   -34036.302   -29231.811 
   80000    32.997833   -34026.903   -29223.086 
   80100    33.216461   -34062.761   -29227.116 
   80200    33.008123   -34079.297   -29273.981 
   80300     32.78474   -34096.204   -29323.408 
   80400    32.770471   -34087.473   -29316.755 
   80500    33.056145   -34068.584   -29256.278 
   80600    33.116935   -34026.363   -29205.207 
   80700    33.298654   -34048.414   -29200.803 
   80800    32.747543    -34021.01    -29253.63 
   80900    33.015128   -34066.353   -29260.018 
   81000    32.959513   -34059.967   -29261.729 
   81100    32.873391   -34034.526   -29248.825 
   81200    33.224584   -34052.312   -29215.484 
   81300    33.004955   -34038.072   -29233.218 
   81400    32.973742   -34059.431   -29259.121 
   81500    32.983665   -34072.993   -29271.239 
   81600    32.927305   -34069.561   -29276.011 
   81700     32.99395   -34070.914   -29267.662 
   81800    33.049061   -34067.285    -29256.01 
   81900    33.113223   -34080.482   -29259.866 
   82000    32.899178    -34077.17   -29287.715 
   82100     32.74418   -34051.248   -29284.357 
   82200    33.300272   -34078.066    -29230.22 
   82300    33.070405   -34047.009   -29232.627 
   82400    32.997757   -34062.816    -29259.01 
   82500    33.058418   -34098.582   -29285.944 
   82600    32.762137   -34080.906   -29311.401 
   82700    33.008076   -34090.516   -29285.207 
   82800    33.051794   -34064.567   -29252.894 
   82900    33.180356   -34074.547   -29244.159 
   83000    33.029027   -34082.642   -29274.284 
   83100     32.83219    -34085.37   -29305.667 
   83200    32.918741   -34090.352   -29298.048 
   83300    33.113423   -34098.131   -29277.486 
   83400    32.906431    -34069.96   -29279.449 
   83500    33.150217   -34100.564   -29274.563 
   83600    32.900202   -34090.816   -29301.212 
   83700    32.903879   -34104.877   -29314.737 
   83800    33.040814   -34110.075       -29300 
   83900    32.998308   -34091.231   -29287.345 
   84000    33.175818   -34115.462   -29285.734 
   84100    32.720291   -34070.472   -29307.059 
   84200     33.15721   -34109.281   -29282.262 
   84300    33.071521   -34094.239   -29279.694 
   84400    33.052814    -34115.54   -29303.719 
   84500      32.8271   -34114.945   -29335.983 
   84600    32.921367   -34124.756   -29332.071 
   84700    33.093886    -34122.67   -29304.869 
   84800     33.14593   -34129.775   -29304.398 
   84900    32.858593   -34122.891   -29339.344 
   85000    32.903333   -34135.149   -29345.089 
   85100    32.858431   -34105.037   -29321.514 
   85200    33.294087   -34127.602   -29280.656 
   85300    33.019693   -34097.998   -29290.999 
   85400    32.982384   -34119.111   -29317.543 
   85500    32.889503   -34121.977   -29333.931 
   85600    33.085721   -34142.993   -29326.381 
   85700     32.94623   -34131.925    -29335.62 
   85800    32.939499   -34130.326   -29335.001 
   85900    33.155775   -34148.678   -29321.867 
   86000    32.908617   -34121.325   -29330.495 
   86100    33.051552   -34140.881   -29329.244 
   86200    32.923623   -34131.151   -29338.137 
   86300    32.956863   -34130.071   -29332.218 
   86400    33.105868   -34140.125    -29320.58 
   86500    32.854725   -34112.729   -29329.745 
   86600    33.046592   -34117.151   -29306.236 
   86700     33.13889   -34114.497   -29290.144 
   86800    33.002954   -34115.641   -29311.078 
   86900     32.92615   -34128.157   -29334.775 
   87000    32.891707   -34121.659   -29333.291 
   87100    33.026253   -34112.013   -29304.058 
   87200    33.112152   -34108.071   -29287.612 
   87300    33.071338   -34115.482   -29300.964 
   87400    32.934381   -34123.039   -29328.459 
   87500    32.880243   -34125.487   -29338.788 
   87600    33.013107   -34128.069   -29322.028 
   87700    33.257317   -34150.221   -29308.629 
   87800    32.932907   -34138.481   -29344.116 
   87900     32.87609   -34159.343   -29373.249 
   88000    32.965163   -34164.822   -29365.761 
   88100    33.034117   -34154.545   -29345.446 
   88200    33.110392   -34157.109   -29336.906 
   88300    33.044324   -34166.369   -29355.784 
   88400    32.838383   -34163.934   -29383.329 
   88500    32.880121   -34156.889   -29370.208 
   88600    33.247611    -34174.15    -29333.97 
   88700    33.027551   -34160.455   -29352.312 
   88800    32.865475   -34159.397   -29374.849 
   88900    33.013955   -34172.399   -29366.234 
   89000    33.024216   -34172.794   -29365.136 
   89100    32.968776   -34165.692   -29366.104 
   89200    33.165574   -34190.712   -29362.475 
   89300    32.808746   -34157.905   -29381.615 
   89400    33.079584   -34190.746   -29375.028 
   89500    32.905322   -34163.494   -29373.145 
   89600     33.05785   -34166.449   -29353.894 
   89700    33.070669   -34154.161    -29339.74 
   89800    33.121702   -34168.615   -29346.764 
   89900    32.932941   -34170.546   -29376.175 
   90000    32.947627   -34184.555   -29388.047 
   90100    32.922333   -34177.735   -29384.908 
   90200    33.082864   -34185.301   -29369.105 
   90300    33.063076    -34184.02   -29370.704 
   90400    32.927563    -34180.81   -29387.223 
   90500    32.930892   -34176.785   -29382.713 
   90600    32.946949   -34154.282   -29357.872 
   90700    33.143588   -34154.673   -29329.636 
   90800    33.089004   -34149.779   -29332.689 
   90900    33.005191   -34169.737   -29364.849 
   91000    32.914024   -34188.027   -29396.411 
   91100    32.902548   -34192.834   -29402.888 
   91200    33.027544   -34191.982   -29383.839 
   91300    33.065522   -34187.768   -29374.097 
   91400    32.861981   -34160.367   -29376.327 
   91500    33.145781   -34177.734   -29352.379 
   91600    33.105148   -34182.084   -29362.644 
   91700    32.833757   -34173.346   -29393.415 
   91800    33.051671   -34202.843   -29391.188 
   91900    33.007277    -34205.89   -29400.698 
   92000    32.864933   -34194.678   -29410.208 
   92100    33.032475   -34198.607   -29389.747 
   92200    33.076489   -34187.053   -29371.785 
   92300     33.05511   -34190.105    -29377.95 
   92400    32.964236   -34201.538   -29402.611 
   92500    32.865051   -34200.558   -29416.071 
   92600    32.945902    -34194.79   -29398.533 
   92700    33.122756   -34190.034   -29368.031 
   92800    33.163103   -34192.655   -29364.778 
   92900    32.913266    -34193.04   -29401.534 
   93000    32.863476   -34203.316   -29419.058 
   93100    32.995006   -34204.739   -29401.333 
   93200    33.052051   -34193.366   -29381.656 
   93300    32.917099   -34164.656   -29372.591 
   93400    33.108994   -34175.594   -29355.594 
   93500    33.017147   -34169.162   -29362.533 
   93600    32.913938   -34167.857   -29376.253 
   93700    33.147781   -34201.598   -29375.952 
   93800    32.801298   -34172.107   -29396.902 
   93900     33.02341   -34187.044   -29379.503 
   94000    33.020437   -34165.278    -29358.17 
   94100    32.956837   -34152.018   -29354.169 
   94200    33.119019   -34167.778   -29346.319 
   94300    33.058573   -34168.114   -29355.455 
   94400    32.969739   -34183.489   -29383.761 
   94500    32.964712   -34202.772   -29403.777 
   94600    32.911947   -34202.637   -29411.323 
   94700    32.958352   -34192.687   -29394.618 
   94800    33.153879   -34195.365   -29368.831 
   94900    32.924016   -34168.458   -29375.387 
   95000    32.941865   -34171.021   -29375.352 
   95100    33.041115   -34173.272   -29363.154 
   95200    33.114577   -34188.601   -29367.788 
   95300    32.975341   -34200.584   -29400.041 
   95400    32.887665   -34209.572   -29421.793 
   95500    32.982182     -34215.1   -29413.561 
   95600    33.064953   -34213.825   -29400.236 
   95700    32.917692   -34190.072   -29397.922 
   95800     33.11186   -34199.531   -29379.114 
   95900    33.123729   -34207.132   -29384.987 
   96000    32.877878   -34208.884    -29422.53 
   96100    33.045863    -34242.72    -29431.91 
   96200    32.940791    -34237.33   -29441.817 
   96300    32.920591   -34236.642    -29444.07 
   96400    32.970047   -34230.105   -29430.333 
   96500    32.982702   -34209.446   -29407.831 
   96600    33.084254   -34202.004   -29385.605 
   96700    33.211089   -34224.779   -29389.916 
   96800    32.899679   -34225.529   -29436.001 
   96900    32.866482    -34248.39   -29463.695 
   97000    32.983807   -34257.372   -29455.597 
   97100    32.968891   -34239.701   -29440.097 
   97200    32.971556   -34220.575   -29420.584 
   97300    33.153577   -34223.634   -29397.144 
   97400    33.128426   -34240.109    -29417.28 
   97500    32.773596   -34229.818   -29458.645 
   97600    32.890575   -34235.812    -29447.61 
   97700    33.208758   -34258.925   -29424.401 
   97800    32.982791   -34243.363   -29441.736 
   97900    32.972169   -34256.338   -29456.257 
   98000    32.988068   -34265.465   -29463.069 
   98100    32.936189   -34260.078   -29465.234 
   98200    33.133418   -34284.381   -29460.825 
   98300    32.910214   -34275.654   -29484.592 
   98400    32.829433   -34266.973   -29487.671 
   98500    33.201535   -34283.389   -29449.917 
   98600    33.021689   -34260.085   -29452.794 
   98700    33.025446    -34285.68   -29477.843 
   98800    32.922901   -34296.567   -29503.658 
   98900    32.934018   -34303.761   -29509.234 
   99000    32.871452   -34271.037   -29485.618 
   99100    33.248988   -34285.702   -29445.322 
   99200    32.988848   -34258.839    -29456.33 
   99300    33.030819   -34286.745   -29478.126 
   99400    32.868915    -34280.99   -29495.941 
   99500     33.11746   -34312.795   -29491.563 
   99600    32.886736   -34285.485   -29497.841 
   99700    33.001249   -34286.422   -29482.107 
   99800    33.173785   -34302.024   -29472.592 
   99900    32.886562   -34282.453   -29494.835 
  100000     33.00438   -34307.806   -29503.035 
  100100     33.00128   -34316.276   -29511.957 
  100200    32.766931    -34281.26   -29511.057 
  100300    33.159856   -34292.647   -29465.242 
  100400    33.039498   -34258.742   -29448.859 
  100500    33.057364    -34265.38   -29452.896 
  100600    32.969992   -34267.692   -29467.927 
  100700    33.013363   -34289.194   -29483.116 
  100800    32.898425   -34285.645   -29496.299 
  100900    32.981687   -34284.969   -29483.503 
  101000    33.079099   -34285.716   -29470.068 
  101100     32.97083   -34277.905   -29478.019 
  101200    32.982195   -34284.335   -29482.795 
  101300    32.975837       -34278   -29477.385 
  101400    33.089678   -34290.353   -29473.165 
  101500    32.970255   -34287.108   -29487.306 
  101600    33.057597   -34310.382   -29497.864 
  101700    33.047943   -34329.606   -29518.493 
  101800    32.796621   -34316.626   -29542.101 
  101900    33.002775   -34325.102   -29520.566 
  102000    33.102139   -34312.283   -29493.281 
  102100    32.941748   -34280.574   -29484.922 
  102200    33.215859   -34310.605   -29475.047 
  102300    32.868276   -34284.715   -29499.758 
  102400    32.963608   -34309.967   -29511.132 
  102500    32.946096   -34304.727   -29508.442 
  102600    33.151595   -34321.372    -29495.17 
  102700    33.071535   -34330.357   -29515.811 
  102800    32.740426   -34316.686   -29550.342 
  102900      32.8998   -34319.625    -29530.08 
  103000    33.216901   -34320.479    -29484.77 
  103100    33.066243    -34305.38   -29491.603 
  103200    32.971936   -34320.157    -29520.11 
  103300    33.057109   -34364.157   -29551.711 
  103400    32.742533   -34350.646   -29583.995 
  103500    32.908091   -34345.965   -29555.213 
  103600    33.140476   -34324.884   -29500.301 
  103700    33.182662   -34311.938   -29481.213 
  103800     33.10612   -34332.459   -29512.877 
  103900    32.873579   -34350.214   -29564.486 
  104000    32.933321   -34380.172   -29585.746 
  104100     32.83537   -34361.528   -29581.362 
  104200    33.094712   -34366.019   -29548.098 
  104300    33.096623   -34354.521   -29536.322 
  104400    32.929703   -34341.145   -29547.246 
  104500    32.990736   -34346.121   -29543.336 
  104600    32.905035   -34316.571   -29526.263 
  104700    33.307772   -34353.532   -29504.594 
  104800    32.872572   -34327.329   -29541.747 
  104900    32.938485   -34353.436   -29558.259 
  105000    33.051655   -34366.358   -29554.705 
  105100    33.058312   -34374.751   -29562.129 
  105200    32.795915   -34352.077   -29577.654 
  105300    33.034281   -34361.749   -29552.625 
  105400    32.998343   -34331.036   -29527.145 
  105500    33.164579   -34339.285   -29511.193 
  105600    32.922107   -34319.525   -29526.732 
  105700    33.007546    -34340.28   -29535.049 
  105800    32.977097   -34339.566   -29538.768 
  105900    32.978638   -34337.433    -29536.41 
  106000    32.954147   -34321.424   -29523.967 
  106100    33.140708   -34331.361   -29506.744 
  106200    33.106733   -34346.509   -29526.838 
  106300    32.779745   -34340.185   -29568.117 
  106400     32.93172   -34357.626   -29563.433 
  106500    33.070072   -34353.354    -29539.02 
  106600    33.071722   -34344.098   -29529.524 
  106700    32.864897   -34318.786   -29534.321 
  106800       33.059    -34321.17   -29508.448 
  106900     33.15463   -34322.669   -29496.025 
  107000    32.969473   -34323.029    -29523.34 
  107100     32.96717    -34347.01   -29547.656 
  107200    32.943833    -34356.03   -29560.074 
  107300    32.966667   -34350.774   -29551.494 
  107400    33.054235   -34351.619    -29539.59 
  107500    33.004687   -34343.097   -29538.282 
  107600    32.997138   -34342.401   -29538.684 
  107700    32.974119    -34340.91   -29540.545 
  107800    32.930447   -34328.232   -29534.225 
  107900    33.186412   -34350.871     -29519.6 
  108000    32.988255   -34341.387   -29538.964 
  108100    32.956173   -34359.227   -29561.475 
  108200    32.920236   -34363.773   -29571.252 
  108300     32.94093   -34354.336   -29558.802 
  108400    33.018111   -34340.923   -29534.153 
  108500    33.081353   -34329.702   -29513.726 
  108600    33.205083   -34349.528   -29515.539 
  108700    32.969583   -34369.173   -29569.468 
  108800    32.650068   -34362.942   -29609.752 
  108900    33.069003   -34384.808    -29570.63 
  109000    33.173031   -34373.374   -29544.052 
  109100    32.916932    -34347.36   -29555.321 
  109200    33.069001   -34368.774   -29554.596 
  109300    32.972346   -34362.658   -29562.551 
  109400    32.949442   -34366.846   -29570.074 
  109500    33.056745   -34375.165   -29562.772 
  109600    33.049409   -34376.425   -29565.099 
  109700    32.975478   -34380.216   -29579.653 
  109800    32.945534   -34383.553   -29587.349 
  109900    32.964469   -34386.043   -29587.083 
  110000    32.925967   -34363.098   -29569.743 
  110100    33.176002   -34373.606   -29543.851 
  110200    33.027324   -34358.787   -29550.677 
  110300    33.038089   -34380.426   -29570.748 
  110400    32.980021   -34406.632   -29605.408 
  110500    32.885434   -34418.961   -29631.506 
  110600    32.802973   -34401.006   -29625.557 
  110700    33.169877   -34403.971   -29575.108 
  110800    33.237394   -34406.171   -29567.478 
  110900    32.929809   -34416.681   -29622.766 
  111000    32.805338   -34434.721   -29658.927 
  111100    32.796286   -34411.558   -29637.082 
  111200    33.188418   -34403.319   -29571.756 
  111300    33.152002   -34375.415   -29549.154 
  111400    33.023512   -34378.591   -29571.035 
  111500    33.070673   -34424.927   -29610.506 
  111600    32.793457   -34429.766   -29655.701 
  111700    32.850339   -34432.146   -29649.801 
  111800    33.055746   -34411.408   -29599.159 
  111900    33.147493   -34391.434    -29565.83 
  112000    33.036472   -34384.657   -29575.215 
  112100    33.004221   -34399.633   -29594.886 
  112200    33.002805   -34422.574   -29618.032 
  112300    32.862449   -34423.002   -29638.894 
  112400    32.867001   -34408.446   -29623.676 
  112500    33.182999   -34415.897   -29585.124 
  112600    33.143917   -34413.037   -29587.952 
  112700    32.947823   -34422.001   -29625.464 
  112800    32.906387   -34447.022   -29656.517 
  112900    32.750482   -34421.764   -29653.956 
  113000    33.075286   -34421.084   -29605.991 
  113100     33.17922   -34404.904    -29574.68 
  113200    33.062272   -34399.466   -29586.267 
  113300    33.046609   -34431.616   -29620.698 
  113400    32.829936   -34436.329   -29656.954 
  113500    32.825255   -34429.046   -29650.352 
  113600      33.2406   -34450.978   -29611.819 
  113700     32.92755   -34408.346   -29614.761 
  113800    33.074525   -34430.586   -29615.604 
  113900    32.928849   -34418.165    -29624.39 
  114000    33.055687   -34433.712   -29621.472 
  114100    33.084111   -34447.984   -29631.606 
  114200    32.848344   -34440.763   -29658.708 
  114300    32.877115   -34437.438   -29651.195 
  114400    33.013541    -34418.92   -29612.816 
  114500    33.072138   -34389.748   -29575.114 
  114600    33.210924     -34398.1   -29563.261 
  114700    33.071486    -34421.53    -29606.99 
  114800    32.686429   -34423.246   -29664.763 
  114900    32.944774   -34452.963    -29656.87 
  115000    33.031397   -34429.518   -29620.815 
  115100    33.075202   -34411.949   -29596.868 
  115200      32.9824    -34394.07   -29592.499 
  115300    33.150137   -34417.707   -29591.717 
  115400    33.043631   -34433.101   -29622.616 
  115500    32.875769   -34455.497    -29669.45 
  115600    32.731289   -34441.995   -29676.981 
  115700     33.13309   -34448.842   -29625.334 
  115800    33.170308   -34434.141   -29605.215 
  115900    32.998077    -34435.17   -29631.317 
  116000    32.829851   -34429.245   -29649.883 
  116100    33.003488   -34434.653   -29630.012 
  116200    33.226721   -34448.954   -29611.815 
  116300    32.842873   -34416.502   -29635.243 
  116400    33.050963   -34449.603   -29638.051 
  116500    32.966008   -34443.194    -29644.01 
  116600    32.925715   -34435.091   -29641.773 
  116700    32.991831   -34418.882   -29615.939 
  116800    33.115353   -34411.959   -29591.033 
  116900    33.034663   -34402.354   -29593.175 
  117000    33.042563    -34423.32   -29612.991 
  117100    32.868325   -34426.832   -29641.868 
  117200    32.980892   -34448.342   -29646.991 
  117300    32.945437   -34435.787   -29639.598 
  117400    33.036691   -34433.035   -29623.561 
  117500    32.954841   -34408.355   -29610.797 
  117600    33.120074   -34414.565   -29592.952 
  117700    33.155406   -34435.522   -29608.765 
  117800     32.83316   -34439.351   -29659.507 
  117900    32.894129   -34465.566   -29676.846 
  118000    32.797031   -34426.799   -29652.214 
  118100    33.225384   -34431.605   -29594.661 
  118200    33.070308    -34398.55   -29584.182 
  118300    33.077737   -34409.551   -29594.101 
  118400    32.911456   -34415.077   -29623.835 
  118500    32.890197   -34425.775   -29637.627 
  118600    33.020368   -34425.031   -29617.933 
  118700     33.11053   -34422.629   -29602.406 
  118800    33.009566   -34423.648   -29618.122 
  118900    32.927796   -34426.157   -29632.536 
  119000    32.907763   -34414.533   -29623.828 
  119100    33.015916   -34399.147   -29592.697 
  119200    33.251502   -34411.663   -29570.917 
  119300    33.009254   -34413.621   -29608.141 
  119400    32.811854   -34430.044   -29653.301 
  119500    32.892344   -34434.416   -29645.956 
  119600    33.142187   -34439.211   -29614.379 
  119700    32.953325   -34411.995   -29614.657 
  119800    33.009825   -34417.696   -29612.133 
  119900    33.086504   -34430.603   -29613.877 
  120000    32.978709   -34436.175   -29635.141 
  120100    32.851495   -34432.741   -29650.228 
  120200     32.96188   -34430.935   -29632.352 
  120300     33.02119   -34408.328    -29601.11 
  120400    33.216421   -34418.391   -29582.752 
  120500    33.001722   -34416.562   -29612.179 
  120600    32.966502   -34445.307   -29646.051 
  120700    32.924493   -34460.429   -29667.289 
  120800      32.9184     -34462.9   -29670.646 
  120900    32.987516   -34453.227   -29650.911 
  121000    32.995736   -34428.765   -29625.253 
  121100    33.185981     -34435.9   -29604.692 
  121200    33.096092   -34445.222     -29627.1 
  121300    32.699237   -34431.837   -29671.489 
  121400    33.015816   -34459.171   -29652.736 
  121500    33.137932   -34448.341   -29624.128 
  121600    33.184038   -34472.788   -29641.863 
  121700    32.692934   -34448.264   -29688.834 
  121800    33.110287   -34505.798    -29685.61 
  121900    32.772514   -34450.462   -29679.446 
  122000    33.267658   -34481.732   -29638.634 
  122100     33.11388   -34475.108   -29654.397 
  122200    32.776483   -34473.366   -29701.772 
  122300    32.945575   -34498.489   -29702.279 
  122400    32.946161    -34478.85   -29682.555 
  122500    33.095953   -34476.042    -29657.94 
  122600    33.042988   -34464.299   -29653.908 
  122700    32.929545   -34448.753   -29654.877 
  122800    33.068792   -34456.241   -29642.094 
  122900    32.939968    -34446.16   -29650.767 
  123000     33.11181   -34466.953   -29646.543 
  123100     33.02442   -34464.589   -29656.901 
  123200    32.911719   -34474.091    -29682.81 
  123300    32.865432   -34464.765   -29680.223 
  123400    33.121521   -34470.641   -29648.818 
  123500    32.987285   -34442.889   -29640.608 
  123600    32.969152   -34436.449   -29636.807 
  123700    33.051652    -34442.31   -29630.658 
  123800    33.051468   -34444.388   -29632.762 
  123900    33.034379   -34460.995   -29651.857 
  124000    32.907661   -34470.809   -29680.119 
  124100    32.982715   -34485.837   -29684.221 
  124200    32.933222   -34474.513   -29680.101 
  124300    32.947847   -34455.665   -29659.125 
  124400    33.193655   -34459.399   -29627.074 
  124500    33.121045   -34459.597   -29637.843 
  124600    32.787851   -34446.267   -29673.019 
  124700    33.069084   -34483.305   -29669.115 
  124800    33.064206   -34484.773   -29671.293 
  124900    32.919788   -34480.576    -29688.12 
  125000    32.932416   -34480.992   -29686.698 
  125100    33.075838   -34480.356   -29665.183 
  125200     33.10832   -34484.876   -29664.974 
  125300    32.822889    -34463.03   -29684.681 
  125400    33.072668    -34479.51   -29664.799 
  125500    33.108262   -34479.099   -29659.205 
  125600    32.884103   -34470.682   -29683.421 
  125700    33.163321   -34517.775   -29689.866 
  125800    32.840905   -34497.129   -29716.157 
  125900     32.84885    -34493.67   -29711.541 
  126000    33.112022   -34495.719   -29675.278 
  126100    33.080051   -34474.787       -29659 
  126200    32.959343   -34467.893   -29669.679 
  126300         33.1    -34494.55   -29675.859 
  126400     33.04313   -34512.456   -29702.044 
  126500    32.709665   -34496.333   -29734.467 
  126600    33.009207   -34510.272   -29704.799 
  126700    33.152251   -34496.729   -29670.432 
  126800    33.022818   -34482.412   -29674.957 
  126900    32.870323   -34472.653   -29687.398 
  127000    33.100719   -34495.131   -29676.336 
  127100    33.071566   -34499.049   -29684.498 
  127200    32.906971   -34497.554   -29706.965 
  127300    32.792504   -34478.472   -29704.546 
  127400    33.179805    -34493.34   -29663.031 
  127500    32.998987   -34455.265    -29651.28 
  127600     33.05611    -34462.47   -29650.169 
  127700    33.035173   -34479.166   -29669.913 
  127800    32.932748   -34495.726   -29701.384 
  127900    32.999363   -34520.358   -29716.318 
  128000    32.947391   -34525.387   -29728.913 
  128100    32.951883   -34523.929   -29726.801 
  128200    32.964198    -34512.38   -29713.459 
  128300    33.052267    -34505.26   -29693.518 
  128400    33.121818   -34509.031   -29687.163 
  128500    32.940338   -34502.355   -29706.908 
  128600    32.952641   -34514.774   -29717.536 
  128700    32.849671   -34492.429   -29710.181 
  128800    33.158662   -34509.591    -29682.36 
  128900    33.117329   -34503.296   -29682.083 
  129000    32.977795   -34518.088   -29717.187 
  129100    32.786436   -34521.921   -29748.879 
  129200    33.028247   -34538.458   -29730.213 
  129300    33.101213   -34531.504   -29712.636 
  129400    32.919405   -34508.156   -29715.757 
  129500     33.03066   -34517.165   -29708.568 
  129600    32.993359   -34510.156    -29706.99 
  129700    33.001826   -34517.333   -29712.934 
  129800    33.020291   -34527.727   -29720.641 
  129900    32.911933    -34515.29   -29723.978 
  130000    33.042409   -34527.297    -29716.99 
  130100    32.889601   -34501.346   -29713.284 
  130200    33.115425   -34513.297    -29692.36 
  130300    33.032873   -34503.466   -29694.548 
  130400     33.11583   -34537.021   -29716.025 
  130500    32.875268   -34543.664    -29757.69 
  130600    32.901709    -34559.91   -29770.086 
  130700    32.942458   -34550.428   -29754.672 
  130800    33.027309   -34531.672   -29723.564 
  130900    33.191856   -34533.888   -29701.825 
  131000    32.939566   -34517.076   -29721.741 
  131100    32.983496   -34535.688   -29733.958 
  131200    32.864847   -34517.005   -29732.547 
  131300    33.117774   -34525.998   -29704.719 
  131400    33.173172   -34530.175   -29700.832 
  131500    32.871945   -34526.488   -29740.998 
  131600    32.832625   -34536.903   -29757.137 
  131700    33.001735   -34531.795   -29727.409 
  131800    33.184838   -34530.257   -29699.215 
  131900    33.010293   -34519.812    -29714.18 
  132000     32.95579   -34530.218   -29732.521 
  132100    32.867594   -34516.173   -29731.316 
  132200    33.153311   -34537.528   -29711.076 
  132300    32.956852   -34518.007   -29720.155 
  132400    32.953523   -34520.228   -29722.861 
  132500    33.144611   -34543.711   -29718.526 
  132600    32.943242   -34542.649   -29746.779 
  132700    32.925983   -34559.483   -29766.126 
  132800    32.975113   -34565.673   -29765.163 
  132900    32.929981   -34554.169    -29760.23 
  133000    33.027132   -34551.853    -29743.77 
  133100    33.032606   -34539.056   -29730.177 
  133200    33.033595   -34534.543    -29725.52 
  133300    33.029905   -34541.428   -29732.941 
  133400    32.896732   -34528.105   -29739.006 
  133500    33.201562   -34564.154   -29730.677 
  133600    32.799956    -34532.28    -29757.27 
  133700    33.002968   -34554.065     -29749.5 
  133800    33.088155   -34553.341   -29736.375 
  133900    32.939198   -34532.828   -29737.547 
  134000     33.22707   -34576.566   -29739.377 
  134100    32.748772   -34546.674   -29779.115 
  134200    32.891298   -34559.891   -29771.583 
  134300    33.106775   -34556.457   -29736.779 
  134400    33.107507   -34547.836   -29728.052 
  134500    32.900182   -34522.782   -29733.181 
  134600    33.038158   -34533.432   -29723.744 
  134700    32.903581   -34509.425   -29719.329 
  134800    33.221745   -34538.302   -29701.888 
  134900     32.92747   -34511.814    -29718.24 
  135000    32.976361   -34526.133   -29725.442 
  135100    33.120938   -34552.499    -29730.76 
  135200    32.812781   -34530.001   -29753.124 
  135300    33.096092   -34559.005   -29740.883 
  135400     32.93846   -34526.201   -29731.027 
  135500    33.002809   -34523.567   -29719.025 
  135600    33.074222   -34523.274   -29708.336 
  135700    33.046411   -34533.278   -29722.389 
  135800    32.902267   -34542.312   -29752.408 
  135900    32.968602    -34557.48   -29757.918 
  136000    33.045463   -34563.851     -29753.1 
  136100    33.041658   -34563.225   -29753.027 
  136200    32.979607   -34566.245   -29765.081 
  136300    32.921214   -34567.898   -29775.235 
  136400    32.907265   -34552.446   -29761.814 
  136500    33.065691   -34542.668   -29728.972 
  136600    33.063385    -34527.68    -29714.32 
  136700    33.057045   -34536.867   -29724.429 
  136800    32.955919   -34545.369   -29747.653 
  136900    32.835645   -34542.275   -29762.069 
  137000    33.093595   -34557.743   -29739.985 
  137100    33.135058   -34557.993   -29734.199 
  137200    32.962842   -34566.267   -29767.543 
  137300    32.981567   -34596.125   -29794.676 
  137400    32.821486   -34577.953   -29799.808 
  137500    33.095635   -34587.352   -29769.297 
  137600    33.088826   -34572.002   -29754.938 
  137700    32.961025    -34566.18   -29767.722 
  137800    32.975136   -34578.476   -29777.963 
  137900    33.017921   -34582.252   -29775.511 
  138000    33.026971   -34588.434   -29780.375 
  138100    32.999199   -34593.531   -29789.515 
  138200    32.951813   -34590.445   -29793.327 
  138300    32.983372    -34587.61   -29785.898 
  138400    33.081395   -34587.034   -29771.051 
  138500    32.987443   -34578.239   -29775.934 
  138600    32.990532   -34584.454     -29781.7 
  138700    32.919993   -34575.551   -29783.065 
  138800     33.04554   -34580.688   -29769.925 
  138900    33.073788   -34576.637   -29761.763 
  139000    33.109257   -34597.245   -29777.207 
  139100    32.873271   -34595.645   -29809.962 
  139200    32.808024   -34588.403   -29812.218 
  139300    32.979387   -34573.805   -29772.673 
  139400    33.211201   -34561.925   -29727.045 
  139500    33.277986   -34576.703   -29732.101 
  139600    32.738641   -34559.732   -29793.648 
  139700    33.013648   -34615.042   -29808.923 
  139800    32.843194   -34596.736   -29815.431 
  139900    33.009886   -34594.196   -29788.624 
  140000    33.162434   -34584.653   -29756.873 
  140100    32.972158   -34560.894   -29760.814 
  140200     32.88046   -34547.254   -29760.523 
  140300    33.022259    -34541.51   -29734.137 
  140400    33.213447   -34549.946   -29714.739 
  140500    32.951935   -34544.495   -29747.359 
  140600    32.924435    -34570.25   -29777.118 
  140700    32.989224    -34586.81   -29784.246 
  140800     32.92353   -34581.326   -29788.326 
  140900    32.998343   -34574.226   -29770.335 
  141000    33.107551   -34571.526   -29751.736 
  141100    33.118643   -34576.329   -29754.924 
  141200     32.91673   -34582.333   -29790.322 
  141300    32.855611   -34590.701   -29807.588 
  141400    33.112025   -34613.267   -29792.826 
  141500    33.007229   -34605.092   -29799.907 
  141600    32.895893   -34594.205   -29805.228 
  141700    32.905045   -34583.512   -29793.202 
  141800    33.088938   -34577.756   -29760.676 
  141900    33.090479    -34565.79   -29748.485 
  142000    32.911319   -34553.629   -29762.407 
  142100    33.135191   -34587.463   -29763.649 
  142200    32.837855   -34562.821   -29782.293 
  142300    33.101849       -34596   -29777.041 
  142400    32.846105   -34564.682   -29782.953 
  142500    32.989909   -34564.927   -29762.263 
  142600    33.160519   -34570.512   -29743.011 
  142700    33.022561   -34568.467    -29761.05 
  142800    32.938078    -34574.76   -29779.642 
  142900     32.86134   -34566.758   -29782.811 
  143000    33.000836   -34554.808   -29750.553 
  143100    33.147836   -34542.802   -29717.147 
  143200    33.191109   -34557.617   -29725.662 
  143300    32.725342   -34530.695   -29766.547 
  143400    33.134217   -34588.779   -29765.107 
  143500       32.899   -34564.565   -29775.136 
  143600    33.047718   -34581.654   -29770.575 
  143700    33.085885   -34598.851   -29782.215 
  143800    32.761023   -34574.808   -29805.465 
  143900    33.102382   -34606.554   -29787.516 
  144000    32.980889   -34577.364   -29776.014 
  144100    33.058832   -34581.657   -29768.959 
  144200    32.987563   -34580.637   -29778.314 
  144300    32.909581   -34577.169     -29786.2 
  144400    32.967609   -34575.767    -29776.35 
  144500    33.125268   -34582.521   -29760.151 
  144600    33.020683   -34580.353   -29773.209 
  144700    32.956129   -34592.039   -29794.293 
  144800    32.880051   -34586.966   -29800.295 
  144900    32.979218   -34580.477    -29779.37 
  145000    33.193649   -34594.035   -29761.711 
  145100    32.896956   -34574.481   -29785.349 
  145200    33.033033   -34605.955   -29797.014 
  145300    32.942922   -34601.498   -29805.675 
  145400    33.111477   -34630.268   -29809.907 
  145500    32.824219   -34610.937   -29832.394 
  145600    32.902328   -34603.821   -29813.908 
  145700    33.215924    -34605.92   -29770.353 
  145800    33.040482   -34586.337   -29776.311 
  145900    33.011517   -34600.255   -29794.445 
  146000    32.908247   -34597.823   -29807.047 
  146100    32.911552   -34591.641   -29800.385 
  146200    33.178644   -34610.544   -29780.404 
  146300    32.969818   -34597.261   -29797.522 
  146400    32.893427   -34593.662   -29805.044 
  146500    33.067345   -34600.187    -29786.25 
  146600    33.073595   -34597.132   -29782.285 
  146700    33.054754   -34619.188   -29807.085 
  146800    32.790786   -34608.764   -29835.089 
  146900    32.916886   -34604.501   -29812.468 
  147000    33.161593   -34602.192   -29774.534 
  147100    33.153347   -34596.345   -29769.888 
  147200    32.930048   -34597.081   -29803.131 
  147300    32.996854   -34627.922   -29824.247 
  147400     32.90755   -34628.017   -29837.343 
  147500    32.916055   -34622.801   -29830.889 
  147600    33.044779   -34614.569   -29803.918 
  147700    33.079595   -34598.593   -29782.872 
  147800     33.07762   -34598.067   -29782.634 
  147900    32.875106   -34590.116   -29804.165 
  148000    32.867546   -34586.267   -29801.417 
  148100    33.178026   -34598.522   -29768.473 
  148200    33.048518    -34577.33   -29766.134 
  148300     33.09324     -34605.4   -29787.694 
  148400    32.834885   -34600.115    -29820.02 
  148500    32.858347   -34599.754   -29816.243 
  148600    33.076172   -34595.216   -29779.994 
  148700    33.199169   -34591.538   -29758.411 
  148800    33.068264    -34602.28   -29788.209 
  148900    32.751125   -34592.342    -29824.44 
  149000    32.923698   -34594.935    -29801.91 
  149100    33.089828   -34577.072   -29759.862 
  149200    33.055783   -34552.586   -29740.333 
  149300    33.149394   -34565.719   -29739.837 
  149400    32.996772   -34573.969   -29770.307 
  149500    32.904799   -34592.189   -29801.915 
  149600    32.920188   -34595.893   -29803.379 
  149700     33.00966   -34592.806   -29787.267 
  149800    33.083559   -34590.922   -29774.624 
  149900    33.039575   -34589.412   -29779.518 
  150000    32.900166   -34582.979    -29793.38 
  150100     32.98874   -34585.381   -29782.888 
  150200    33.127158   -34595.507   -29772.863 
  150300     32.89063   -34579.462   -29791.251 
  150400    33.078586   -34609.797   -29794.224 
  150500    32.891384   -34588.712   -29800.391 
  150600    33.096544   -34609.755   -29791.568 
  150700    33.044459   -34615.842   -29805.237 
  150800    32.849354   -34604.999   -29822.797 
  150900    33.169431    -34646.09   -29817.291 
  151000    32.717778   -34596.896   -29833.849 
  151100    33.104754   -34625.985   -29806.602 
  151200    32.997513   -34592.369   -29788.598 
  151300    33.152358   -34603.552   -29777.239 
  151400    33.030228   -34608.659   -29800.126 
  151500    32.866542   -34618.021   -29833.317 
  151600     33.07427   -34655.626   -29840.681 
  151700     32.84443   -34634.308   -29852.823 
  151800    32.937884    -34627.72    -29832.63 
  151900    33.201181   -34634.886   -29801.465 
  152000    32.996345   -34615.033   -29811.432 
  152100    32.951404   -34620.357   -29823.299 
  152200    32.957201    -34623.69   -29825.788 
  152300    33.112928   -34641.183    -29820.61 
  152400    32.889969   -34621.022   -29832.907 
  152500    32.880991   -34602.855   -29816.047 
  152600    33.210978   -34611.384   -29776.537 
  152700    32.910937   -34565.833   -29774.666 
  152800    33.179431   -34597.567   -29767.313 
  152900    32.977593    -34595.47   -29794.599 
  153000    33.013734   -34638.626   -29832.494 
  153100    32.757911    -34629.48    -29860.59 
  153200    32.989279   -34638.051   -29835.479 
  153300    32.995659   -34606.055   -29802.554 
  153400    33.251248   -34618.065   -29777.355 
  153500    32.987916   -34609.658   -29807.284 
  153600    32.899212   -34635.136   -29845.676 
  153700     32.95522   -34657.824    -29860.21 
  153800    32.913018   -34648.923   -29857.453 
  153900    33.152153   -34661.268   -29834.985 
  154000    32.969776   -34640.852   -29841.119 
  154100    32.976285   -34648.488   -29847.808 
  154200    33.001579   -34653.905   -29849.542 
  154300    32.945822    -34644.69   -29848.444 
  154400    33.075719   -34648.928   -29833.772 
  154500    32.984622   -34634.858   -29832.964 
  154600    33.011863   -34642.698   -29836.838 
  154700    33.024237   -34651.458   -29843.797 
  154800    32.864474   -34639.682   -29855.279 
  154900    32.976789   -34637.956   -29837.202 
  155000    33.039951   -34617.115   -29807.166 
  155100    33.224436   -34629.973   -29793.167 
  155200    33.049601   -34648.191   -29836.837 
  155300    32.747756   -34654.773   -29887.362 
  155400    32.961254   -34677.005   -29878.512 
  155500    33.045972    -34672.47   -29861.644 
  155600    32.929927   -34644.318   -29850.387 
  155700    33.086179    -34648.58   -29831.901 
  155800    33.128795   -34661.031   -29838.148 
  155900    32.892737   -34660.231   -29871.713 
  156000    32.962623   -34690.218   -29891.526 
  156100    32.943172    -34690.05    -29894.19 
  156200    33.029914   -34695.315   -29886.827 
  156300    32.884657   -34658.346   -29871.005 
  156400    33.217059   -34674.261   -29838.529 
  156500    32.972579   -34655.596   -29855.455 
  156600     32.99755    -34680.98   -29877.204 
  156700    33.028519   -34704.019   -29895.734 
  156800    32.799808   -34686.898   -29911.909 
  156900    32.974979   -34687.309   -29886.819 
  157000    33.094084   -34670.077   -29852.248 
  157100    33.178235   -34676.589   -29846.509 
  157200    33.017687   -34696.329   -29889.621 
  157300     32.83011   -34715.196   -29935.796 
  157400    32.890204   -34728.695   -29940.546 
  157500    32.991019   -34719.853   -29917.027 
  157600    33.018733   -34688.828   -29881.968 
  157700    33.171832   -34686.153   -29857.004 
  157800     32.92597   -34666.064   -29872.709 
  157900    32.922238   -34669.097   -29876.284 
  158000     33.14275   -34690.083   -29865.169 
  158100    32.920268   -34667.007   -29874.481 
  158200    33.148407   -34706.057   -29880.319 
  158300    32.850226   -34689.498   -29907.169 
  158400     32.99169   -34710.721   -29907.798 
  158500    33.005474   -34710.663   -29905.733 
  158600    32.915473    -34694.07   -29902.243 
  158700    33.066704   -34691.657   -29877.814 
  158800    33.039048   -34672.535   -29862.718 
  158900    33.029682   -34669.331   -29860.877 
  159000    33.118766   -34696.765   -29875.342 
  159100    32.874944   -34698.535   -29912.608 
  159200    32.840652   -34697.977   -29917.042 
  159300    33.044419   -34698.798   -29888.199 
  159400    33.056049   -34672.948   -29860.655 
  159500    33.130164   -34674.893   -29851.811 
  159600    32.957774   -34668.987   -29871.002 
  159700    33.047922   -34697.326   -29886.217 
  159800    32.893046   -34696.193    -29907.63 
  159900    32.979423   -34708.857    -29907.72 
  160000    32.919389   -34689.058   -29896.661 
  160100    33.032637   -34680.035   -29871.151 
  160200    33.096768   -34668.555   -29850.335 
  160300    33.078764   -34666.852   -29851.253 
  160400    33.020238   -34681.771   -29874.692 
  160500    32.889288    -34684.02   -29896.005 
  160600    33.026512   -34702.136   -29894.144 
  160700    32.999308   -34697.246   -29893.214 
  160800    32.976873   -34696.559   -29895.793 
  160900    33.002458   -34704.868   -29900.377 
  161000    32.936725   -34691.744   -29896.822 
  161100    33.069103   -34694.517   -29880.324 
  161200    33.047565    -34689.46   -29878.402 
  161300    32.929751   -34675.992   -29882.086 
  161400     33.00641   -34678.958   -29873.892 
  161500    33.034444   -34672.029   -29862.882 
  161600    32.993251   -34654.108   -29850.958 
  161700    33.233726   -34685.857   -29847.699 
  161800    33.023911   -34699.699   -29892.086 
  161900    32.907239   -34712.063   -29921.434 
  162000     33.06565   -34741.645   -29927.955 
  162100    32.786537   -34708.899   -29935.842 
  162200    33.041749   -34707.227   -29897.017 
  162300    33.120606   -34707.782   -29886.091 
  162400    33.041367   -34720.954   -29910.799 
  162500    32.920796   -34719.516   -29926.914 
  162600     33.13338   -34749.974   -29926.424 
  162700    32.851894   -34723.585   -29941.013 
  162800    32.950996   -34723.764   -29926.766 
  162900    32.952654   -34712.461   -29915.221 
  163000     33.03797     -34708.4   -29898.739 
  163100    33.112359   -34715.663   -29895.173 
  163200    32.949171    -34736.75   -29940.016 
  163300    32.888105   -34742.757   -29954.914 
  163400    32.834352   -34711.218     -29931.2 
  163500    33.012104    -34699.68   -29893.785 
  163600    33.058495   -34695.819   -29883.171 
  163700    32.969564   -34689.647   -29889.945 
  163800     32.88478   -34690.545   -29903.186 
  163900    32.938211   -34705.778   -29910.641 
  164000    33.081705   -34712.119   -29896.091 
  164100    33.074206   -34699.072   -29884.136 
  164200     33.10027    -34702.63     -29883.9 
  164300    32.820802   -34693.305    -29915.26 
  164400    33.100152    -34735.76   -29917.047 
  164500    32.848957   -34732.282   -29950.138 
  164600    32.813277   -34732.565   -29955.616 
  164700    33.094104   -34746.901   -29929.068 
  164800    32.825174    -34702.66   -29923.978 
  164900    32.959179   -34690.329   -29892.138 
  165000    32.989254   -34681.561   -29878.992 
  165100    33.132492   -34704.506   -29881.085 
  165200    32.959571   -34711.299   -29913.052 
  165300    32.842895   -34708.134   -29926.872 
  165400    32.928172   -34704.366    -29910.69 
  165500    33.015596   -34705.298   -29898.895 
  165600    33.110391   -34725.321   -29905.117 
  165700    32.856134   -34715.603   -29932.414 
  165800    32.988545   -34728.678   -29926.213 
  165900    33.137204   -34704.992   -29880.885 
  166000    33.148675   -34685.245   -29859.468 
  166100    33.076959   -34693.566    -29878.23 
  166200    33.009022   -34702.181   -29896.735 
  166300    33.074973   -34729.223   -29914.175 
  166400    32.881528   -34715.146    -29928.26 
  166500    33.124115   -34740.446   -29918.245 
  166600    32.930359   -34728.283   -29934.288 
  166700    32.942312   -34724.234   -29928.499 
  166800    33.099149   -34731.687    -29913.12 
  166900    32.944713   -34720.396   -29924.312 
  167000    32.933929   -34714.931   -29920.417 
  167100    33.066832    -34727.67   -29913.808 
  167200    32.853659   -34700.899    -29918.07 
  167300    33.154204   -34729.912   -29903.331 
  167400    32.956642   -34723.801    -29925.98 
  167500    32.759521   -34736.203    -29967.08 
  167600    33.012132   -34752.191   -29946.292 
  167700    32.891752   -34710.689   -29922.315 
  167800    32.951668   -34688.736   -29891.639 
  167900    33.026689   -34686.474   -29878.456 
  168000     33.14663   -34711.464   -29885.985 
  168100    32.883007   -34702.995   -29915.894 
  168200    32.950221   -34716.364   -29919.478 
  168300    32.985155    -34707.71   -29905.738 
  168400    33.192783   -34681.985   -29849.787 
  168500    33.356804   -34721.407   -29865.331 
  168600    32.984109   -34710.569   -29908.749 
  168700    32.925474   -34717.126   -29923.842 
  168800    33.013203   -34730.216   -29924.161 
  168900    32.940452   -34712.659   -29917.196 
  169000     33.11988   -34703.358   -29881.773 
  169100    33.116543   -34698.829    -29877.73 
  169200    33.016135   -34711.096   -29904.614 
  169300    32.893482   -34717.883   -29929.257 
  169400    32.987829   -34740.569   -29938.208 
  169500    32.845729   -34736.454    -29954.78 
  169600    33.014949   -34754.902   -29948.593 
  169700    32.950043   -34727.549   -29930.689 
  169800    33.101397   -34722.213   -29903.319 
  169900    33.115012   -34707.802   -29886.926 
  170000    33.003013   -34712.207   -29907.636 
  170100    32.944897   -34737.866   -29941.755 
  170200    32.884469   -34733.383   -29946.069 
  170300    32.984069   -34725.104   -29923.291 
  170400    33.089991   -34731.349   -29914.115 
  170500    33.042932   -34738.786   -29928.403 
  170600      32.9684   -34733.383    -29933.85 
  170700    33.011556    -34737.35   -29931.535 
  170800    32.879775   -34741.342   -29954.711 
  170900    32.935436   -34769.498   -29974.765 
  171000    32.843892   -34756.174   -29974.767 
  171100    33.158893   -34764.063   -29936.799 
  171200    33.000115   -34735.363   -29931.214 
  171300    33.133778   -34753.933   -29930.325 
  171400    32.980434   -34772.855   -29971.571 
  171500    32.858651   -34778.937   -29995.382 
  171600    32.953106   -34775.651   -29978.345 
  171700     33.03639   -34755.529   -29946.099 
  171800    33.002295   -34733.879   -29929.412 
  171900    33.090091    -34741.53   -29924.281 
  172000    32.955273   -34753.772   -29956.151 
  172100     32.88937   -34784.697    -29996.67 
  172200    32.818751   -34758.086   -29980.339 
  172300    33.068024   -34756.735   -29942.699 
  172400    33.195071   -34778.567   -29946.036 
  172500    32.821423   -34758.214   -29980.079 
  172600    32.863859   -34749.791   -29965.477 
  172700    33.166605   -34773.897    -29945.51 
  172800    32.932113   -34754.846   -29960.597 
  172900    32.971311   -34764.815   -29964.859 
  173000    33.192748   -34780.205   -29948.012 
  173100    33.026749   -34743.205   -29935.178 
  173200    32.936315   -34733.613   -29938.751 
  173300    33.003565   -34725.667   -29921.015 
  173400    33.209102   -34731.576   -29897.002 
  173500     33.09789   -34743.464    -29925.08 
  173600    33.008913   -34763.305   -29957.874 
  173700     32.91234   -34758.232   -29966.861 
  173800    33.020901   -34767.923   -29960.747 
  173900    33.164599   -34779.373   -29951.278 
  174000    32.934444   -34776.939    -29982.35 
  174100    32.834769   -34788.126   -30008.047 
  174200    32.949688   -34786.722   -29989.914 
  174300    33.037067   -34768.315   -29958.786 
  174400    33.025942   -34765.406   -29957.496 
  174500    32.928524   -34750.532   -29956.804 
  174600     33.07174   -34754.599   -29940.023 
  174700    33.133344   -34744.515    -29920.97 
  174800    33.146088   -34743.331   -29917.931 
  174900    32.983599   -34758.102   -29956.357 
  175000    32.935135   -34776.598   -29981.908 
  175100    32.953952   -34778.776   -29981.347 
  175200    33.031622   -34764.529   -29955.792 
  175300    33.180975   -34741.384   -29910.905 
  175400    33.022275   -34721.146    -29913.77 
  175500    33.020609   -34723.593    -29916.46 
  175600    33.210498   -34767.372   -29932.595 
  175700    32.897666   -34760.729   -29971.494 
  175800    32.953646   -34756.525   -29959.141 
  175900    33.239528   -34785.112   -29946.108 
  176000    32.924657   -34776.794   -29983.629 
  176100    32.880981   -34771.405   -29984.599 
  176200    33.090343   -34787.737   -29970.452 
  176300    32.942661    -34771.83   -29976.045 
  176400    33.089203   -34796.512   -29979.394 
  176500    32.877311   -34809.241   -30022.969 
  176600    32.886394   -34825.806   -30038.212 
  176700    32.980055   -34820.234   -30019.005 
  176800    33.061982    -34799.83   -29986.674 
  176900     33.08938   -34797.585   -29980.441 
  177000    32.935321    -34795.69   -30000.973 
  177100    32.724831   -34808.042   -30043.969 
  177200    32.671301   -34812.764   -30056.483 
  177300    33.118829   -34843.545   -30022.113 
  177400    32.830233   -34794.118     -30014.7 
  177500    33.086131   -34796.938   -29980.266 
  177600    33.214314   -34816.255   -29980.923 
  177700    32.778605   -34774.706   -30002.804 
  177800    33.124184   -34810.045   -29987.834 
  177900    33.067948   -34820.937   -30006.913 
  178000    32.705916    -34774.75    -30013.43 
  178100    33.068071   -34797.317   -29983.275 
  178200    32.997434    -34786.28   -29982.521 
  178300    32.939073   -34782.484   -29987.221 
  178400    33.078419    -34788.87   -29973.321 
  178500    33.135409   -34775.234   -29951.388 
  178600    33.105458   -34783.631   -29964.146 
  178700    32.865705     -34787.5   -30002.918 
  178800     33.09596   -34823.376   -30005.273 
  178900    32.961625   -34826.436    -30027.89 
  179000    32.803441   -34814.436   -30038.918 
  179100     32.91044   -34809.126   -30018.032 
  179200    33.025578   -34805.489   -29997.632 
  179300    33.031339   -34792.083   -29983.388 
  179400     32.85659   -34749.366   -29966.111 
  179500    33.367329   -34784.432   -29926.824 
  179600     33.09737   -34778.575   -29960.267 
  179700    32.999639   -34787.256   -29983.176 
  179800    32.851905   -34779.687   -29997.114 
  179900    32.991283   -34779.274    -29976.41 
  180000      33.2226   -34786.808   -29950.269 
  180100    32.939432   -34768.386   -29973.071 
  180200    33.046695   -34789.426   -29978.496 
  180300    33.040305   -34794.528   -29984.528 
  180400    32.931431   -34794.351     -30000.2 
  180500    32.842287   -34782.864   -30001.691 
  180600      33.2372   -34792.446   -29953.782 
  180700    33.051072   -34772.497   -29960.929 
  180800    32.993696   -34784.642   -29981.427 
  180900    33.012266   -34818.404   -30012.485 
  181000    32.722658   -34803.172   -30039.414 
  181100    32.930157   -34812.609   -30018.644 
  181200    33.022499    -34801.83   -29994.422 
  181300    32.961323   -34772.588   -29974.086 
  181400    33.198737   -34784.782   -29951.717 
  181500    32.949528   -34775.037   -29978.252 
  181600    32.838332   -34785.638   -30005.041 
  181700    33.126646    -34821.84    -29999.27 
  181800    32.921318    -34802.81   -30010.132 
  181900    33.011096   -34811.553   -30005.805 
  182000    33.132989   -34812.641   -29989.147 
  182100    33.033605   -34779.012   -29969.987 
  182200    33.042146    -34769.02   -29958.751 
  182300    33.027103   -34760.551   -29952.472 
  182400     33.13518   -34769.224   -29945.411 
  182500     32.86333   -34752.018   -29967.782 
  182600    33.159119   -34820.079   -29992.782 
  182700    32.848142   -34813.474   -30031.449 
  182800    32.994762   -34825.112   -30021.742 
  182900    32.906794   -34791.725   -30001.161 
  183000    32.957305   -34758.441   -29960.524 
  183100    33.113587   -34777.428    -29956.76 
  183200    32.921702   -34769.369   -29976.635 
  183300    32.944978   -34777.874   -29981.752 
  183400    33.091488   -34774.337   -29956.885 
  183500    33.222738    -34773.29   -29936.731 
  183600    33.036989   -34787.659   -29978.141 
  183700    32.995184   -34795.005   -29991.573 
  183800    32.916849   -34787.681   -29995.653 
  183900    33.131193   -34809.656   -29986.424 
  184000    32.863697   -34768.137   -29983.847 
  184100    33.161482    -34782.67   -29955.029 
  184200    33.073207   -34757.809   -29943.018 
  184300    33.011343   -34759.236   -29953.452 
  184400    32.814096   -34767.457   -29990.389 
  184500    33.102113   -34808.856   -29989.857 
  184600    32.837672   -34782.969   -30002.468 
  184700    32.750633   -34772.661   -30004.831 
  184800    33.076642   -34772.339   -29957.048 
  184900    33.061898   -34766.932   -29953.788 
  185000     32.93611    -34760.01   -29965.178 
  185100    32.992559   -34767.501   -29964.451 
  185200    33.065658   -34779.414   -29965.723 
  185300    32.913442   -34776.274   -29984.742 
  185400    32.943653   -34792.125   -29996.195 
  185500    33.011856   -34794.604   -29988.745 
  185600    33.031828    -34772.37   -29963.603 
  185700    33.192823   -34770.167   -29937.963 
  185800    33.146138     -34794.2   -29968.792 
  185900    32.797751   -34769.827   -29995.138 
  186000    33.079529   -34784.575   -29968.865 
  186100    33.158751   -34796.151   -29968.908 
  186200     33.06386   -34821.979   -30008.549 
  186300    32.862693   -34807.806   -30023.662 
  186400    33.060193   -34821.456    -30008.56 
  186500     32.97131   -34804.731   -30004.775 
  186600     32.99588   -34797.807   -29994.274 
  186700    33.174767   -34797.916    -29968.34 
  186800    32.889445   -34773.052   -29985.014 
  186900    33.000429   -34790.183   -29985.988 
  187000    33.242977   -34819.166    -29979.66 
  187100    32.757278   -34792.801   -30024.003 
  187200    32.978821   -34809.136   -30008.087 
  187300    33.033528   -34797.744   -29988.731 
  187400    32.938379   -34776.896   -29981.734 
  187500    33.259188    -34790.19   -29948.324 
  187600    33.099767   -34742.631   -29923.974 
  187700    33.093236   -34762.691   -29944.985 
  187800    32.974165   -34793.267   -29992.896 
  187900       32.958   -34800.685   -30002.667 
  188000    32.975191   -34799.738   -29999.217 
  188100    32.977279   -34775.194   -29974.369 
  188200    33.341331   -34799.501   -29945.677 
  188300    33.013695   -34787.221   -29981.095 
  188400    32.895582   -34778.109   -29989.177 
  188500    33.229881   -34814.538   -29976.939 
  188600    32.937897   -34809.039   -30013.947 
  188700    33.001213   -34830.801   -30026.492 
  188800       32.798   -34794.065   -30019.339 
  188900    33.055837   -34794.908   -29982.647 
  189000    33.110182   -34792.406   -29972.233 
  189100    33.118607   -34811.382   -29989.983 
  189200    32.945553   -34808.861   -30012.654 
  189300    33.028826   -34823.129   -30014.799 
  189400    33.002184   -34826.083   -30021.632 
  189500    32.880236    -34817.26   -30030.563 
  189600    33.032409    -34820.28   -30011.429 
  189700    33.083501   -34796.597   -29980.309 
  189800    33.053773   -34781.315   -29969.354 
  189900    33.080251   -34805.196    -29989.38 
  190000    32.786218   -34798.086   -30025.076 
  190100    32.955375   -34806.984   -30009.347 
  190200    32.928458   -34788.873   -29995.156 
  190300    33.056765   -34782.929   -29970.533 
  190400    33.100715    -34786.66   -29967.866 
  190500    32.944035   -34781.236    -29985.25 
  190600    33.027672     -34796.6   -29988.438 
  190700    33.007467   -34805.067   -29999.847 
  190800    32.786688   -34822.621   -30049.542 
  190900    32.879468   -34838.758   -30052.172 
  191000    32.968803   -34827.611    -30028.02 
  191100    33.019795   -34823.948   -30016.934 
  191200     32.95289   -34809.304    -30012.03 
  191300    33.018179   -34801.107   -29994.327 
  191400    33.239728    -34802.79   -29963.758 
  191500    33.103128   -34786.651   -29967.505 
  191600    32.832796   -34787.253   -30007.462 
  191700    33.175632   -34838.914   -30009.213 
  191800    32.795266   -34815.334   -30041.007 
  191900    32.893254    -34815.62   -30027.028 
  192000    33.222173   -34836.262   -29999.786 
  192100    32.849201   -34790.528   -30008.349 
  192200     33.02642   -34797.311   -29989.332 
  192300    33.126585   -34795.156   -29972.595 
  192400    32.991508   -34792.142   -29989.245 
  192500    33.044549   -34843.633   -30033.015 
  192600    32.728194   -34811.657   -30047.093 
  192700    33.122266   -34840.985   -30019.053 
  192800    32.950672   -34813.675   -30016.723 
  192900    33.043942   -34823.075   -30012.546 
  193000    33.007221    -34818.66   -30013.476 
  193100    32.846766   -34803.921   -30022.096 
  193200    33.062769   -34812.937   -29999.666 
  193300    33.084613   -34796.728   -29980.277 
  193400    33.102141   -34801.725   -29982.723 
  193500    32.786376   -34800.405   -30027.371 
  193600    32.967569   -34820.215   -30020.803 
  193700    33.094051   -34833.967   -30016.143 
  193800    32.806796   -34795.974   -30019.968 
  193900    33.081643   -34810.541   -29994.523 
  194000    32.965336   -34795.428   -29996.341 
  194100    33.020713   -34802.947   -29995.799 
  194200    32.968486   -34792.685    -29993.14 
  194300    33.112049   -34800.069   -29979.624 
  194400    33.172668   -34812.497   -29983.227 
  194500    32.949218   -34822.581   -30025.841 
  194600    32.847607    -34824.25   -30042.303 
  194700    32.931827    -34812.47   -30018.261 
  194800    33.106794   -34812.952   -29993.272 
  194900    32.865574   -34784.621   -30000.058 
  195000    33.076406   -34800.475   -29985.219 
  195100    33.167909   -34814.797    -29986.22 
  195200     32.86004   -34824.963   -30041.205 
  195300    32.882563   -34825.503   -30038.467 
  195400    32.967079   -34807.822   -30008.481 
  195500    33.146519   -34811.805   -29986.343 
  195600    33.100849   -34827.321   -30008.507 
  195700    32.928005   -34818.417   -30024.765 
  195800    32.948834    -34811.44   -30014.755 
  195900    33.199683   -34835.594   -30002.391 
  196000    32.913371   -34833.137   -30041.616 
  196100     32.94124   -34857.901   -30062.322 
  196200    33.030277   -34868.001    -30059.46 
  196300    32.961974   -34853.473   -30054.876 
  196400    32.999325   -34829.797   -30025.763 
  196500    33.114978   -34806.316   -29985.445 
  196600    33.117444   -34810.399   -29989.168 
  196700    33.001673   -34822.461   -30018.085 
  196800     32.91741   -34819.997   -30027.888 
  196900    33.006955   -34828.268   -30023.123 
  197000     33.08839   -34842.045   -30025.044 
  197100    32.848912   -34843.864   -30061.726 
  197200    32.844603   -34865.214   -30083.704 
  197300    33.003439   -34868.703    -30064.07 
  197400    32.931149   -34828.953   -30034.844 
  197500    33.000824   -34819.926   -30015.673 
  197600    33.146839    -34847.74    -30022.23 
  197700    32.883449   -34838.452   -30051.287 
  197800    32.849295   -34833.387   -30051.194 
  197900    33.212393   -34854.729   -30019.676 
  198000    32.906494   -34804.256   -30013.736 
  198100    33.271604   -34818.984   -29975.311 
  198200    33.058522   -34789.894   -29977.241 
  198300    32.935496   -34812.721   -30017.978 
  198400    32.927015   -34824.603   -30031.096 
  198500     33.08816   -34840.682   -30023.715 
  198600    32.884168   -34832.424   -30045.154 
  198700     32.90961   -34855.499   -30064.526 
  198800    32.953115   -34839.539   -30042.232 
  198900    33.201233   -34839.212   -30005.784 
  199000    33.024144    -34824.67   -30017.022 
  199100    32.813976   -34819.589   -30042.537 
  199200    32.976354   -34823.144   -30022.453 
  199300    33.221259   -34828.721   -29992.378 
  199400    32.968764   -34820.397   -30020.812 
  199500    33.041275   -34846.094   -30035.952 
  199600    33.067005   -34874.976   -30061.088 
  199700    32.786534   -34859.943   -30086.887 
  199800    32.993616   -34875.001   -30071.798 
  199900    33.049931   -34873.306   -30061.904 
  200000     33.00526   -34866.533   -30061.635 
  200100    32.798545   -34841.181   -30066.376 
  200200     33.14093   -34855.531   -30030.881 
  200300    33.097638   -34842.779   -30024.432 
  200400     32.85449    -34824.21   -30041.261 
  200500    33.144941   -34848.835   -30023.602 
  200600     33.16681   -34846.859   -30018.442 
  200700    32.810366   -34831.784   -30055.258 
  200800     33.02688   -34863.585   -30055.539 
  200900    32.887545   -34851.974   -30064.213 
  201000     33.11326   -34875.037   -30054.416 
  201100    32.942547   -34846.053   -30050.284 
  201200    33.113159   -34870.607       -30050 
  201300    32.816526    -34850.19   -30072.767 
  201400    32.941765   -34865.332   -30069.677 
  201500    33.067929   -34846.928   -30032.906 
  201600    33.222231   -34852.574   -30016.089 
  201700    33.003184   -34853.803   -30049.207 
  201800    33.077295   -34873.988   -30058.602 
  201900    32.829412   -34849.073   -30069.774 
  202000    33.050791   -34860.549   -30049.022 
  202100    33.175548   -34856.359    -30026.67 
  202200    32.851094   -34841.723   -30059.267 
  202300    32.959506   -34879.767   -30081.529 
  202400    32.848656   -34858.786   -30076.686 
  202500    33.086114     -34872.6   -30055.931 
  202600    32.949207   -34851.105   -30054.367 
  202700    33.059121   -34852.556   -30039.816 
  202800     33.27982   -34844.827   -29999.959 
  202900    33.116212   -34840.408   -30019.357 
  203000    32.908505   -34857.127   -30066.314 
  203100    32.967952   -34862.515   -30063.048 
  203200     33.03826   -34859.095   -30049.392 
  203300    32.960122   -34827.416   -30029.089 
  203400    33.121518   -34813.032   -29991.208 
  203500    33.262407   -34845.736   -30003.402 
  203600    33.016052   -34845.396   -30038.927 
  203700    32.903855   -34838.521   -30048.385 
  203800    33.048577   -34847.252   -30036.047 
  203900    33.079608   -34846.468   -30030.746 
  204000    32.835897   -34823.883   -30043.641 
  204100    33.061117    -34838.91    -30025.88 
  204200    33.044871   -34818.829   -30008.164 
  204300    33.073472   -34817.413   -30002.585 
  204400     33.04495   -34819.755   -30009.078 
  204500    32.957887   -34838.325   -30040.323 
  204600    32.920684   -34858.148   -30065.561 
  204700    32.963946   -34861.507   -30062.623 
  204800     33.14406   -34852.305     -30027.2 
  204900    33.092155   -34805.797   -29988.249 
  205000    33.246411   -34817.873   -29977.867 
  205100    33.175517   -34842.537   -30012.853 
  205200    33.026836   -34848.958   -30040.918 
  205300    32.857504   -34848.158    -30064.77 
  205400    33.051015   -34866.745   -30055.185 
  205500    33.083651    -34858.54   -30042.229 
  205600    32.935401   -34840.321   -30045.593 
  205700    32.959364   -34844.413   -30046.196 
  205800    33.020788   -34836.088   -30028.929 
  205900    33.121155   -34824.226   -30002.455 
  206000    33.130043    -34827.58   -30004.516 
  206100     32.93586   -34845.814   -30051.019 
  206200    33.007498    -34866.81   -30061.585 
  206300    32.888123   -34853.563   -30065.718 
  206400    33.063203   -34857.733   -30044.399 
  206500     33.22554   -34851.164   -30014.198 
  206600    33.024888    -34855.15   -30047.394 
  206700      32.8687   -34864.862   -30079.843 
  206800     33.01446   -34874.393   -30068.155 
  206900    33.012032   -34852.679   -30046.795 
  207000    33.251623    -34866.18   -30025.416 
  207100    32.760968   -34835.017   -30065.683 
  207200    32.837495   -34844.592   -30064.117 
  207300    33.011538   -34852.958   -30047.145 
  207400    32.944223   -34833.492   -30037.479 
  207500    33.118693   -34841.036   -30019.624 
  207600    33.046192   -34837.087   -30026.229 
  207700    32.939497   -34864.537   -30069.212 
  207800    32.793915    -34858.25   -30084.119 
  207900    32.943086   -34842.767    -30046.92 
  208000    32.957498   -34825.885   -30027.939 
  208100     33.08937   -34829.094   -30011.951 
  208200    32.858923   -34791.049   -30007.454 
  208300    33.294579   -34826.152   -29979.135 
  208400    32.993701   -34794.078   -29990.862 
  208500    33.065164   -34843.547   -30029.928 
  208600    32.933554   -34844.618   -30050.159 
  208700    32.967401   -34846.879   -30047.492 
  208800    33.044176   -34842.966   -30032.402 
  208900    33.024912    -34814.39   -30006.631 
  209000    33.234318   -34801.947   -29963.702 
  209100    33.207733   -34819.062   -29984.687 
  209200    32.994863   -34822.196   -30018.811 
  209300    32.953599   -34818.993   -30021.615 
  209400    33.132623   -34838.197   -30014.757 
  209500    32.876185   -34828.794   -30042.686 
  209600     32.93865   -34860.317   -30065.116 
  209700    32.881783    -34866.75   -30079.827 
  209800    32.866791   -34865.587   -30080.847 
  209900    33.022381   -34851.365   -30043.974 
  210000    33.004632   -34825.687    -30020.88 
  210100    33.163915   -34838.621   -30010.626 
  210200    32.905749   -34838.346   -30047.934 
  210300    32.913956   -34858.327    -30066.72 
  210400    32.993612   -34869.464   -30066.261 
  210500    32.957882   -34854.185   -30056.184 
  210600    33.092125     -34845.1   -30027.556 
  210700    33.040975   -34835.068    -30024.97 
  210800    32.864907   -34858.549   -30074.083 
  210900    32.922157   -34893.734   -30100.934 
  211000    32.763453   -34857.668   -30087.972 
  211100    33.021009   -34852.592   -30045.401 
  211200    33.026203   -34847.814   -30039.867 
  211300     32.99819   -34851.357   -30047.488 
  211400    32.949643   -34861.846   -30065.044 
  211500    32.937677   -34892.769   -30097.709 
  211600    32.788396   -34890.055   -30116.727 
  211700    33.005063   -34878.299   -30073.429 
  211800    32.942001   -34850.977   -30055.288 
  211900    33.184028   -34877.254    -30046.33 
  212000     32.89293    -34861.47   -30072.925 
  212100    32.903271   -34870.614   -30080.563 
  212200    33.017857   -34859.478   -30052.746 
  212300    33.183543   -34843.062   -30012.209 
  212400    33.077424   -34830.612   -30015.208 
  212500     33.11249    -34846.75   -30026.241 
  212600    32.883166    -34832.84   -30045.716 
  212700    33.118994   -34874.809   -30053.353 
  212800    32.820314   -34860.381   -30082.406 
  212900     33.02444    -34891.51   -30083.819 
  213000    32.990719   -34874.218   -30071.436 
  213100     33.18243   -34875.729   -30045.038 
  213200    32.959544   -34853.274    -30055.03 
  213300    32.963672   -34875.247   -30076.403 
  213400    32.911381   -34873.414   -30082.182 
  213500    32.948192   -34850.893   -30054.302 
  213600    33.215434   -34853.374   -30017.878 
  213700    33.095603   -34852.989   -30034.938 
  213800    32.975743   -34870.858   -30070.256 
  213900    32.998689   -34878.934   -30074.992 
  214000    33.022141    -34875.63   -30068.274 
  214100     33.01813    -34877.53   -30070.758 
  214200    32.850634   -34885.909   -30103.521 
  214300    32.892071   -34896.204   -30107.784 
  214400    33.077302   -34893.553   -30078.166 
  214500    33.216177   -34898.673   -30063.069 
  214600    32.777487   -34879.238   -30107.499 
  214700    33.011429   -34921.512   -30115.715 
  214800    32.889484   -34902.363    -30114.32 
  214900    33.047206   -34909.084   -30098.079 
  215000    32.939728   -34888.374   -30093.016 
  215100    32.979415   -34886.952   -30085.816 
  215200    33.156243   -34904.192   -30077.314 
  215300    32.852146   -34885.203   -30102.595 
  215400     32.68715   -34887.915   -30129.327 
  215500    33.278321   -34921.497   -30076.847 
  215600    32.855995   -34861.997   -30078.828 
  215700    33.169063   -34900.636   -30071.891 
  215800    33.017135   -34913.625   -30106.997 
  215900    32.847995   -34914.737   -30132.733 
  216000     33.01254   -34927.012   -30121.054 
  216100    33.018546   -34918.014   -30111.181 
  216200    32.860894   -34871.418   -30087.536 
  216300    33.207348   -34877.467   -30043.149 
  216400    32.942227   -34859.524   -30063.802 
  216500    33.051767   -34890.543   -30078.874 
  216600    33.007474   -34915.674   -30110.454 
  216700    32.868361   -34911.675   -30126.706 
  216800    32.997753    -34917.42   -30113.614 
  216900    32.917539   -34893.048    -30100.92 
  217000    33.273481   -34923.914   -30079.968 
  217100    32.875259   -34906.251   -30120.278 
  217200    32.928108   -34922.169   -30128.502 
  217300    33.120009   -34938.309   -30116.705 
  217400    32.980448   -34929.296    -30128.01 
  217500    32.793124   -34913.381   -30139.365 
  217600    33.103384    -34917.27   -30098.086 
  217700    32.991885   -34893.663   -30090.712 
  217800    33.010266   -34893.694   -30088.067 
  217900    33.117286   -34915.885   -30094.678 
  218000    32.532417   -34876.326   -30140.264 
  218100    33.104246   -34935.131   -30115.822 
  218200    32.947053   -34915.154   -30118.729 
  218300    32.949008   -34913.239    -30116.53 
  218400     33.25787   -34949.332   -30107.658 
  218500    32.765935   -34920.867   -30150.809 
  218600    32.978926   -34946.587   -30145.522 
  218700    33.007533   -34934.783   -30129.554 
  218800    33.023686   -34912.731    -30105.15 
  218900    33.285934   -34907.069    -30061.31 
  219000    33.165751   -34907.958   -30079.695 
  219100    33.127813   -34933.352   -30110.612 
  219200    32.937181   -34933.697    -30138.71 
  219300    32.988054   -34952.828   -30150.434 
  219400    32.792536   -34924.744   -30150.814 
  219500    33.081821    -34920.87   -30104.826 
  219600    32.961975   -34889.888   -30091.291 
  219700     33.08337   -34893.166   -30076.896 
  219800    33.167522   -34922.089   -30093.569 
  219900    32.910446   -34928.768   -30137.672 
  220000    32.958661    -34928.54   -30130.426 
  220100    33.116829   -34933.449   -30112.308 
  220200    32.921035   -34902.327   -30109.689 
  220300    33.123829    -34914.98    -30092.82 
  220400    33.201354   -34925.167   -30091.721 
  220500    32.967047   -34937.435   -30138.099 
  220600    32.851319   -34938.513   -30156.025 
  220700    32.910332   -34921.015   -30129.936 
  220800    33.023282    -34910.21   -30102.688 
  220900    32.986786   -34895.722   -30093.513 
  221000    33.258089   -34933.622   -30091.916 
  221100    32.970548   -34946.728   -30146.883 
  221200    32.798598    -34914.58   -30139.767 
  221300    33.242354   -34947.218   -30107.804 
  221400    33.018771   -34930.501   -30123.635 
  221500    32.757534   -34919.055    -30150.22 
  221600    33.069673   -34939.272   -30124.996 
  221700    33.153182   -34940.887   -30114.454 
  221800    32.944621   -34923.152   -30127.081 
  221900    33.033238   -34937.323   -30128.352 
  222000    32.891094   -34926.217   -30137.939 
  222100    32.965972   -34925.204   -30126.025 
  222200    33.070631    -34908.13   -30093.715 
  222300    33.095224   -34905.959   -30087.963 
  222400    33.072312   -34933.023   -30118.363 
  222500    32.814431   -34928.442   -30151.324 
  222600    32.968389   -34936.486   -30136.955 
  222700     33.06833   -34933.913   -30119.833 
  222800     32.95891   -34901.209   -30103.058 
  222900    33.264967    -34897.57   -30054.863 
  223000    33.047069   -34881.276   -30070.291 
  223100    32.993056   -34887.028   -30083.906 
  223200     33.10791   -34914.525   -30094.683 
  223300    32.933138   -34913.847   -30119.448 
  223400    33.061278   -34936.625   -30123.571 
  223500    32.906545   -34924.323   -30133.795 
  223600    32.925446   -34920.889   -30127.609 
  223700    33.063354   -34898.616    -30085.26 
  223800    33.102872   -34894.941   -30075.832 
  223900    32.968488   -34882.324   -30082.779 
  224000    33.164964   -34917.439    -30089.29 
  224100    32.800037    -34908.17   -30133.147 
  224200    33.009696   -34938.658   -30133.114 
  224300    33.113173     -34947.5   -30126.892 
  224400    32.809126   -34911.306    -30134.96 
  224500    33.144289   -34939.289   -30114.151 
  224600    33.074096   -34917.119   -30102.199 
  224700    32.963905   -34921.431   -30122.553 
  224800    33.022515   -34960.253   -30152.843 
  224900    32.611779    -34922.75   -30175.134 
  225000    32.870657   -34924.973    -30139.67 
  225100     33.12119   -34938.986    -30117.21 
  225200    32.916601   -34911.597   -30119.605 
  225300    33.139117   -34935.962   -30111.576 
  225400    32.981171   -34934.365   -30132.974 
  225500    32.878673   -34941.588   -30155.118 
  225600    33.129813   -34972.719   -30149.688 
  225700    32.791505   -34955.692   -30181.911 
  225800    32.612624   -34949.466   -30201.727 
  225900    32.972332   -34944.328   -30144.223 
  226000    33.066832    -34938.44   -30124.577 
  226100    32.952067   -34915.844   -30118.689 
  226200    33.144551   -34939.617    -30114.44 
  226300    32.928967   -34932.687   -30138.895 
  226400    32.797556   -34929.363   -30154.702 
  226500    33.169354   -34942.168   -30113.381 
  226600    32.922007   -34897.087   -30104.309 
  226700    33.014227   -34900.365   -30094.161 
  226800    33.094563   -34907.942   -30090.043 
  226900     33.05972   -34931.579   -30118.752 
  227000    32.957483   -34952.923   -30154.979 
  227100     32.92457   -34950.917   -30157.766 
  227200    32.949817   -34933.677    -30136.85 
  227300    33.095851   -34929.961   -30111.875 
  227400    32.971143   -34913.277   -30113.345 
  227500     33.11533   -34923.732   -30102.809 
  227600    33.120214   -34922.996   -30101.362 
  227700    32.911731    -34925.63   -30134.348 
  227800    32.876482   -34925.972   -30139.821 
  227900     33.15628   -34943.406   -30116.521 
  228000    33.007575   -34901.239   -30096.004 
  228100     33.14196   -34886.403   -30061.604 
  228200    33.131801   -34885.313   -30061.993 
  228300    33.010822   -34911.759   -30106.051 
  228400    33.026178   -34935.253   -30127.309 
  228500    32.890855   -34926.009   -30137.765 
  228600    33.021237   -34925.125     -30117.9 
  228700    33.080648   -34909.005   -30093.132 
  228800    32.998511   -34897.913   -30093.997 
  228900    32.925923   -34897.004   -30103.655 
  229000    33.033206   -34919.841   -30110.874 
  229100    32.908134   -34919.241   -30128.482 
  229200    32.999058   -34940.174   -30136.179 
  229300    32.945109   -34934.616   -30138.474 
  229400     33.04352   -34927.218   -30116.749 
  229500    33.201122    -34929.51   -30096.098 
  229600    32.929742   -34915.193   -30121.289 
  229700    32.830536   -34934.108   -30154.646 
  229800    33.045619   -34964.191   -30153.417 
  229900    33.026096   -34923.076   -30115.144 
  230000    33.045314   -34894.735   -30084.005 
  230100    33.146536    -34898.61   -30073.144 
  230200    33.031842   -34916.982   -30108.214 
  230300    32.973454   -34934.189   -30133.921 
  230400    32.956959   -34927.787    -30129.92 
  230500    33.108829   -34934.182   -30114.206 
  230600    32.963062   -34913.039   -30114.284 
  230700    32.985468   -34911.615   -30109.597 
  230800    33.031208   -34898.149   -30089.473 
  230900    33.096667    -34890.69   -30072.484 
  231000    33.107058   -34903.231   -30083.513 
  231100    32.902304   -34912.995   -30123.085 
  231200    32.853228   -34913.754   -30130.988 
  231300    32.948934   -34902.518    -30105.82 
  231400    33.017233   -34887.303   -30080.662 
  231500    33.049999    -34892.58   -30081.168 
  231600    32.987073   -34902.904   -30100.653 
  231700    33.081242   -34945.901   -30129.941 
  231800    32.818724   -34931.692   -30153.949 
  231900    32.924063   -34936.052   -30142.974 
  232000    33.043145   -34936.892   -30126.478 
  232100    33.033127   -34929.318   -30120.362 
  232200    33.035205   -34940.219   -30130.961 
  232300    32.759296   -34944.851    -30175.76 
  232400    32.903853   -34954.592   -30164.456 
  232500    32.965002   -34934.692   -30135.654 
  232600    32.988974   -34931.237   -30128.709 
  232700    33.209455   -34960.388   -30125.763 
  232800    32.795276   -34937.494   -30163.165 
  232900    32.890016   -34946.221     -30158.1 
  233000    33.014173   -34951.276    -30145.08 
  233100    32.927891   -34930.488   -30136.853 
  233200    33.090447   -34930.758   -30113.458 
  233300    33.151001   -34943.871   -30117.756 
  233400    32.802973       -34924    -30148.55 
  233500    32.902522   -34925.234   -30135.292 
  233600    33.108415   -34938.421   -30118.505 
  233700    32.926335   -34922.304   -30128.896 
  233800    33.004554   -34940.588   -30135.792 
  233900     32.93177   -34936.677   -30142.477 
  234000    33.054489   -34948.257   -30136.191 
  234100     32.92218   -34921.207   -30128.403 
  234200    33.190055   -34941.463   -30109.662 
  234300    32.910267   -34915.205   -30124.136 
  234400     33.02694   -34954.296   -30146.241 
  234500    32.817327   -34959.381   -30181.842 
  234600    32.826992   -34950.874   -30171.928 
  234700    32.975532   -34934.506   -30133.935 
  234800    32.957143   -34920.203    -30122.31 
  234900    33.036393   -34915.255   -30105.824 
  235000     33.06433   -34902.073   -30088.575 
  235100    33.024382   -34895.257   -30087.575 
  235200     32.95124   -34913.592   -30116.557 
  235300    32.917483   -34940.811   -30148.691 
  235400    32.816619   -34937.099   -30159.663 
  235500    33.031378   -34924.842   -30116.141 
  235600    33.053114   -34916.322   -30104.457 
  235700    33.031406   -34922.854   -30114.149 
  235800    32.831838   -34909.289   -30129.637 
  235900      33.0283   -34923.374   -30115.121 
  236000    33.249473   -34933.289   -30092.838 
  236100     32.83969   -34913.129   -30132.334 
  236200    32.858879   -34922.469    -30138.88 
  236300    32.948919   -34913.098   -30116.402 
  236400    33.081769    -34919.38   -30103.343 
  236500    32.976297   -34911.698   -30111.016 
  236600    32.996609   -34913.334   -30109.695 
  236700     33.29097   -34939.728   -30093.236 
  236800    32.768879   -34899.105   -30128.618 
  236900     33.01197   -34924.846   -30118.971 
  237000    33.106162    -34923.22   -30103.632 
  237100    32.883026   -34900.217   -30113.113 
  237200    32.997912   -34915.578   -30111.749 
  237300    33.037207   -34904.732   -30095.182 
  237400    33.169859   -34906.256   -30077.395 
  237500    33.113293   -34917.126     -30096.5 
  237600    32.936661   -34929.969   -30135.057 
  237700    33.013529    -34944.86   -30138.757 
  237800    33.006508   -34949.242   -30144.162 
  237900    32.798868   -34931.831   -30156.979 
  238000    33.108801   -34961.884   -30141.912 
  238100    32.989086   -34930.074    -30127.53 
  238200    33.128918   -34939.368   -30116.467 
  238300    33.001749    -34922.98   -30118.592 
  238400    32.935752   -34933.491   -30138.711 
  238500    32.817387   -34926.195   -30148.647 
  238600    33.055345   -34919.282   -30107.092 
  238700    33.172529   -34928.745   -30099.496 
  238800    33.022498   -34932.938    -30125.53 
  238900    33.011836   -34951.495   -30145.639 
  239000    32.953143   -34954.002    -30156.69 
  239100    32.891125   -34934.635   -30146.352 
  239200    33.037109   -34937.646   -30128.111 
  239300    32.887535   -34911.629   -30123.869 
  239400    33.101379   -34922.341   -30103.449 
  239500    33.144195   -34932.041   -30106.916 
  239600    32.798995   -34924.604   -30149.733 
  239700    32.940401   -34937.702   -30142.245 
  239800    32.986297   -34928.317   -30126.179 
  239900    33.121658   -34941.306   -30119.463 
  240000    32.822342   -34924.927   -30146.658 
  240100    32.908745    -34956.68   -30165.832 
  240200     32.97687   -34954.078   -30153.312 
  240300    33.103306    -34944.33   -30125.158 
  240400    33.046669   -34928.288   -30117.361 
  240500    33.087807   -34941.719   -30124.804 
  240600    32.813221   -34939.545   -30162.603 
  240700    33.010252   -34966.132   -30160.507 
  240800    33.091513   -34960.617   -30143.162 
  240900    33.086342   -34923.725   -30107.022 
  241000    33.206256   -34924.288   -30090.128 
  241100     32.96077   -34925.984   -30127.562 
  241200    33.062897   -34957.004   -30143.715 
  241300    32.937151   -34946.776   -30151.793 
  241400    33.008465   -34959.473   -30154.108 
  241500    32.890002   -34957.958   -30169.838 
  241600    32.853353   -34959.046   -30176.262 
  241700    33.104889   -34958.872   -30139.469 
  241800    33.071748   -34942.457    -30127.88 
  241900    32.928949   -34933.927   -30140.137 
  242000    32.766393   -34935.213   -30165.088 
  242100    33.083383   -34952.372     -30136.1 
  242200    33.157869   -34945.709   -30118.593 
  242300    32.939674   -34939.654   -30144.304 
  242400    32.865343   -34945.917   -30161.387 
  242500    33.202197   -34960.276   -30126.708 
  242600    33.109886   -34931.206   -30111.076 
  242700    32.979543   -34940.105    -30138.95 
  242800    32.962993   -34955.484   -30156.738 
  242900    32.980725   -34956.674   -30155.348 
  243000    33.205963    -34967.69   -30133.573 
  243100    32.936907   -34931.423   -30136.475 
  243200    33.070652   -34951.464   -30137.046 
  243300    32.964997   -34954.557    -30155.52 
  243400    32.800442   -34947.648   -30172.566 
  243500    33.146366   -34981.103   -30155.662 
  243600    33.013774     -34945.3   -30139.162 
  243700    33.027873   -34935.598   -30127.407 
  243800    33.314343   -34958.413   -30108.518 
  243900    32.893168   -34940.737   -30152.157 
  244000    32.993966   -34958.116   -30154.861 
  244100    32.912173   -34935.765   -30144.418 
  244200    33.065217   -34927.627       -30114 
  244300     33.15359   -34918.729   -30092.237 
  244400     33.08287   -34935.484   -30119.287 
  244500    32.950554     -34937.9   -30140.965 
  244600    33.166442   -34973.352   -30144.988 
  244700    32.891614   -34966.795   -30178.441 
  244800    32.808831    -34954.85   -30178.547 
  244900    33.069572   -34954.971    -30140.71 
  245000    33.011533   -34939.564   -30133.752 
  245100    32.925836   -34925.092   -30131.756 
  245200    33.113193   -34924.985   -30104.374 
  245300    33.298017   -34923.766   -30076.248 
  245400    32.864649   -34910.421   -30125.992 
  245500    33.156102   -34970.704   -30143.846 
  245600     32.87705   -34951.649   -30165.415 
  245700    32.832952   -34930.158   -30150.344 
  245800    33.081196   -34928.877   -30112.924 
  245900    33.133113   -34940.346   -30116.835 
  246000    33.021728   -34955.427   -30148.131 
  246100    32.912972   -34955.444   -30163.981 
  246200    32.945865   -34955.271   -30159.019 
  246300    32.918322   -34924.876   -30132.634 
  246400    33.238227   -34963.917   -30125.103 
  246500    32.977598   -34954.183   -30153.312 
  246600    32.974331   -34970.903   -30170.507 
  246700    32.950184   -34976.403   -30179.523 
  246800     33.00016   -34977.893   -30173.737 
  246900    33.120094   -34968.149   -30146.533 
  247000    33.193284   -34975.683   -30143.412 
  247100     32.78837   -34954.927   -30181.603 
  247200    32.984537   -34970.449   -30168.567 
  247300    33.072765   -34975.306    -30160.58 
  247400    32.929022   -34964.029   -30170.229 
  247500    33.012811   -34973.682   -30167.685 
  247600    33.162836    -34964.44   -30136.602 
  247700    33.145859   -34958.708   -30133.341 
  247800    32.939385   -34962.756   -30167.447 
  247900    32.981566   -34984.453   -30183.004 
  248000    32.947565    -34981.16   -30184.661 
  248100     33.02206   -34954.368   -30147.024 
  248200     33.17016   -34946.146   -30117.241 
  248300    32.916757   -34924.337   -30132.323 
  248400    33.086995   -34970.765   -30153.968 
  248500    32.877958   -34976.155   -30189.789 
  248600    32.980487   -34989.234   -30187.942 
  248700    32.915072    -34973.03   -30181.261 
  248800    33.103415   -34978.414   -30159.226 
  248900    32.965296   -34939.218   -30140.137 
  249000    33.348359   -34948.368   -30093.521 
  249100    33.093665   -34937.753   -30119.985 
  249200     33.03202    -34953.14   -30144.346 
  249300    32.921045    -34953.06   -30160.422 
  249400    33.057358   -34972.999   -30160.516 
  249500    32.879314   -34960.838   -30174.274 
  249600    32.968345   -34985.389   -30185.864 
  249700    33.056206   -34993.534   -30181.219 
  249800    32.872139   -34974.139    -30188.62 
  249900    33.041316   -34983.182   -30173.034 
  250000    33.149949   -34977.059   -30151.096 
Loop time of 16120.2 on 32 procs for 250000 steps with 81390 atoms

Performance: 1.340 ns/day, 17.911 hours/ns, 15.509 timesteps/s
82.7% CPU use with 4 MPI tasks x 8 OpenMP threads

MPI task timing breakdown:
Section |  min time  |  avg time  |  max time  |%varavg| %total
---------------------------------------------------------------
Pair    | 337        | 3315.7     | 8088       |5592.2 | 20.57
Bond    | 0.037732   | 301.38     | 1134.9     |2777.0 |  1.87
Neigh   | 137.9      | 141.76     | 145.21     |  21.9 |  0.88
Comm    | 739.01     | 5168.2     | 9172.8     |4171.2 | 32.06
Output  | 123.22     | 493.23     | 616.87     | 961.9 |  3.06
Modify  | 459.19     | 3176.3     | 6200.2     |4580.7 | 19.70
Other   |            | 3524       |            |       | 21.86

Nlocal:    20347.5 ave 40849 max 7998 min
Histogram: 2 0 0 0 1 0 0 0 0 1
Nghost:    7135 ave 13172 max 2400 min
Histogram: 2 0 0 0 0 0 0 1 0 1
Neighs:    1.47297e+06 ave 3.62595e+06 max 216109 min
Histogram: 2 0 0 0 1 0 0 0 0 1

Total # of neighbors = 5891884
Ave neighs/atom = 72.3908
Ave special neighs/atom = 1.05013
Neighbor list builds = 1805
Dangerous builds = 0


Total wall time: 4:28:50
