LAMMPS (3 Mar 2020)
  using 8 OpenMP thread(s) per MPI task
# 3-d LJ free film simulation

dimension	3
boundary	p p p
variable    T equal 1
atom_style	bond
special_bonds   fene
read_data   polymer-gamma-equ
  orthogonal box = (-0 -0 -4.8) to (40 40 24.6)
  1 by 1 by 1 MPI processor grid
  reading atoms ...
  32000 atoms
  reading velocities ...
  32000 velocities
  scanning bonds ...
  1 = max bonds/atom
  reading bonds ...
  28000 bonds
  2 = max # of 1-2 neighbors
  2 = max # of special neighbors
  special bonds CPU = 0.00610709 secs
  read_data CPU = 0.156703 secs


neighbor	0.3 bin
neigh_modify	every 1 delay 0 check yes


mass		1 1.0



# LJ potentials

bond_style  fene
#bond_coeff 	1 10.2478 1.4 1 1
bond_coeff	1 12.2554 1.4 1 1

pair_style	lj/cut 2.5
pair_coeff	1 1 1.0 1.0 2.5

#min_style 	fire
#min_modify 	dmax 0.001
#minimize 	1.0e-5 1.0e-7 200 10000


# initial velocities

compute	     mobile all temp
velocity     all create $T 482748 temp mobile
velocity     all create 1 482748 temp mobile

fix	         1 all nvt temp $T $T 0.3
fix	         1 all nvt temp 1 $T 0.3
fix	         1 all nvt temp 1 1 0.3
fix_modify   1 temp mobile



compute     my_pres all pressure thermo_temp
variable	my_surften equal lz*(c_my_pres[3]-(c_my_pres[1]+c_my_pres[2])/2.0)/2
variable    my_pressure equal -(c_my_pres[1]+c_my_pres[2]+c_my_pres[3])/3
fix          2 all ave/time  100 5000 500000 v_my_surften file polymer-surface-tension.txt mode scalar
#fix          3 all ave/time  100 5000 500000 v_my_pressure file pressure_t0.7c2.5.txt mode scalar

compute    mystr  all stress/atom mobile
compute        p all reduce sum c_mystr[1] c_mystr[2] c_mystr[3]
variable       press equal -(c_p[1]+c_p[2]+c_p[3])/(3*vol)
#fix          4 all ave/time  100 5000 500000 v_press file pressure_t0.7-2c2.5.txt mode scalar

compute    mychu all chunk/atom bin/1d  z lower 0.05 units lattice
 #fix        myave all ave/chunk  100 5000 500000 mychu c_mystr[1] c_mystr[2] c_mystr[3] norm none  file st_.txt
fix        myden all ave/chunk  100 5000  500000 mychu density/number file polymer-den.txt








# Run

timestep	0.003
thermo      500
thermo_style    custom step temp pe ke etotal press v_press vol
thermo_modify	temp mobile




dump 		4 all custom 10000 dump.polymer_den_*.id mass type xs ys zs



run		2000000
Neighbor list info ...
  update every 1 steps, delay 0 steps, check yes
  max neighbors/atom: 2000, page size: 100000
  master list distance cutoff = 2.8
  ghost atom cutoff = 2.8
  binsize = 1.4, bins = 29 29 22
  1 neighbor lists, perpetual/occasional/extra = 1 0 0
  (1) pair lj/cut, perpetual
      attributes: half, newton on
      pair build: half/bin/newton
      stencil: half/bin/3d/newton
      bin: standard
Per MPI rank memory allocation (min/avg/max) = 69.67 | 69.67 | 69.67 Mbytes
Step Temp PotEng KinEng TotEng Press v_press Volume 
       0            1      4.36348    1.4999531    5.8634332 -0.028777653 -0.028777653        47040 
     500    1.0044887     4.365862     1.506686     5.872548  0.015412593  0.015412593        47040 
    1000     1.004117    4.3585472    1.5061284    5.8646757 -0.013613224 -0.013613224        47040 
    1500    1.0062007    4.3666185    1.5092538    5.8758724 -0.043479026 -0.043479026        47040 
    2000    1.0000319    4.3679473     1.500001    5.8679483  0.023664361  0.023664361        47040 
    2500   0.99788088     4.375123    1.4967745    5.8718976  0.071224553  0.071224553        47040 
    3000    1.0041994     4.376536    1.5062521    5.8827881 0.0012301241 0.0012301241        47040 
    3500   0.99993417    4.3703761    1.4998544    5.8702305 -0.0065932908 -0.0065932908        47040 
    4000   0.99731914    4.3743763     1.495932    5.8703083 -0.052498628 -0.052498628        47040 
    4500    1.0029385    4.3761753    1.5043607     5.880536  -0.06361022  -0.06361022        47040 
    5000    1.0067242    4.3832504    1.5100391    5.8932896 -0.066483798 -0.066483798        47040 
    5500    1.0033375    4.3676715    1.5049592    5.8726307 -0.026373108 -0.026373108        47040 
    6000    1.0004254    4.3665215    1.5005912    5.8671127 -0.0097226858 -0.0097226858        47040 
    6500    1.0047602    4.3601039    1.5070932    5.8671971   0.01737051   0.01737051        47040 
    7000   0.99902142    4.3580147    1.4984853       5.8565 -0.038062636 -0.038062636        47040 
    7500     1.010548    4.3582897    1.5157746    5.8740643 -0.072531019 -0.072531019        47040 
    8000    1.0017066    4.3680525     1.502513    5.8705655 -0.010208884 -0.010208884        47040 
    8500    1.0038839    4.3823991    1.5057787    5.8881778  0.013530971  0.013530971        47040 
    9000    1.0052162    4.3686824    1.5077772    5.8764596  -0.05475393  -0.05475393        47040 
    9500    1.0021223    4.3757678    1.5031365    5.8789043 -0.066845621 -0.066845621        47040 
   10000   0.99970262    4.3768662    1.4995071    5.8763732 -0.030786241 -0.030786241        47040 
   10500    1.0015669    4.3784312    1.5023034    5.8807347 -0.013519861 -0.013519861        47040 
   11000    1.0036221    4.3865513    1.5053861    5.8919374 -0.00086575488 -0.00086575488        47040 
   11500   0.99591905    4.3630087    1.4938319    5.8568406 -0.035234182 -0.035234182        47040 
   12000   0.99498502    4.3636978    1.4924309    5.8561287 -0.047248463 -0.047248463        47040 
   12500   0.99627481    4.3650158    1.4943655    5.8593814 0.0010851534 0.0010851534        47040 
   13000    1.0052401    4.3705252    1.5078131    5.8783383 -0.0072937535 -0.0072937535        47040 
   13500    1.0055364    4.3825231    1.5082575    5.8907805 -0.083193323 -0.083193323        47040 
   14000   0.99763169    4.3759795    1.4964008    5.8723803 -0.026503427 -0.026503427        47040 
   14500    1.0049861    4.3597364     1.507432    5.8671684  0.023771469  0.023771469        47040 
   15000   0.99536377    4.3518546     1.492999    5.8448536 -0.054821594 -0.054821594        47040 
   15500    0.9988643    4.3522981    1.4982496    5.8505478 -0.064957492 -0.064957492        47040 
   16000    0.9919089    4.3571197    1.4878169    5.8449366 0.0066901072 0.0066901072        47040 
   16500   0.99848639    4.3695611    1.4976828    5.8672438  -0.05168557  -0.05168557        47040 
   17000   0.99542948    4.3710008    1.4930976    5.8640983 -0.059826522 -0.059826522        47040 
   17500    1.0009087     4.364605    1.5013162    5.8659211 -0.079534894 -0.079534894        47040 
   18000   0.99738469    4.3761848    1.4960303    5.8722151  0.007155945  0.007155945        47040 
   18500    1.0015412    4.3725111    1.5022649    5.8747759 -0.089717263 -0.089717263        47040 
   19000    1.0065696    4.3614744    1.5098072    5.8712816 -0.065785138 -0.065785138        47040 
   19500    1.0028454    4.3674307     1.504221    5.8716518 0.0037772175 0.0037772175        47040 
   20000    1.0043226    4.3711915    1.5064369    5.8776284  0.036756922  0.036756922        47040 
   20500   0.99916622    4.3741852    1.4987025    5.8728877 -0.061576288 -0.061576288        47040 
   21000     1.002954    4.3643392     1.504384    5.8687233  -0.03246344  -0.03246344        47040 
   21500   0.98686738    4.3588408    1.4802548    5.8390956 -0.042425914 -0.042425914        47040 
   22000   0.99860542    4.3716512    1.4978613    5.8695125  0.024643393  0.024643393        47040 
   22500    1.0013805    4.3684597    1.5020238    5.8704836   0.01152394   0.01152394        47040 
   23000     1.000844    4.3670309    1.5012191      5.86825 -0.038827964 -0.038827964        47040 
   23500    1.0009457    4.3615803    1.5013716    5.8629518 -0.065606626 -0.065606626        47040 
   24000    1.0087276    4.3657239    1.5130441     5.878768 0.0073609662 0.0073609662        47040 
   24500    1.0043472    4.3686581    1.5064738    5.8751319 -0.039433455 -0.039433455        47040 
   25000    1.0000705    4.3735894    1.5000589    5.8736483 -0.011712722 -0.011712722        47040 
   25500   0.99516166    4.3703775    1.4926958    5.8630733 -0.016813754 -0.016813754        47040 
   26000   0.99225372    4.3709524    1.4883341    5.8592865  -0.12767614  -0.12767614        47040 
   26500   0.98732544    4.3784453    1.4809419    5.8593872 -0.0051157961 -0.0051157961        47040 
   27000   0.99536779    4.3681175     1.493005    5.8611225 -0.012210009 -0.012210009        47040 
   27500   0.99559005    4.3712428    1.4933384    5.8645813  0.036682699  0.036682699        47040 
   28000     1.000735     4.369363    1.5010555    5.8704185 0.0026559037 0.0026559037        47040 
   28500    1.0017575    4.3582504    1.5025893    5.8608397 -0.064998477 -0.064998477        47040 
   29000    1.0045682    4.3646397    1.5068052     5.871445  0.053749096  0.053749096        47040 
   29500   0.99328059    4.3530574    1.4898743    5.8429317 -0.030565451 -0.030565451        47040 
   30000   0.99579985    4.3692857    1.4936531    5.8629388 -0.036768489 -0.036768489        47040 
   30500   0.99673624    4.3718216    1.4950576    5.8668793 -0.014980813 -0.014980813        47040 
   31000   0.99566849    4.3544321    1.4934561    5.8478881 -0.058722201 -0.058722201        47040 
   31500   0.99480216    4.3633442    1.4921566    5.8555008 -0.041537617 -0.041537617        47040 
   32000   0.99635678    4.3628065    1.4944885     5.857295 0.0036408083 0.0036408083        47040 
   32500   0.99673695    4.3724726    1.4950587    5.8675313 -0.051888446 -0.051888446        47040 
   33000    1.0020561    4.3743562    1.5030372    5.8773934 -0.048995401 -0.048995401        47040 
   33500    1.0029844    4.3778799    1.5044295    5.8823094 -0.011838603 -0.011838603        47040 
   34000    1.0009799    4.3739751    1.5014229     5.875398 -0.0034232463 -0.0034232463        47040 
   34500   0.99849096    4.3726988    1.4976896    5.8703884  -0.02862314  -0.02862314        47040 
   35000   0.99827459    4.3645928    1.4973651    5.8619579  0.015508491  0.015508491        47040 
   35500   0.99702615    4.3650077    1.4954925    5.8605002 -0.021081922 -0.021081922        47040 
   36000     0.998921    4.3634385    1.4983347    5.8617732 -0.008061774 -0.008061774        47040 
   36500   0.99935365    4.3637177    1.4989836    5.8627013 -0.073065757 -0.073065757        47040 
   37000     1.001981    4.3697055    1.5029246      5.87263 -0.067905618 -0.067905618        47040 
   37500     1.005088    4.3731997    1.5075848    5.8807846 -0.045551033 -0.045551033        47040 
   38000   0.99934744    4.3868029    1.4989743    5.8857772 0.0032390962 0.0032390962        47040 
   38500   0.99833122    4.3780836      1.49745    5.8755337 -0.040368669 -0.040368669        47040 
   39000   0.99887958      4.37088    1.4982726    5.8691525  0.018377941  0.018377941        47040 
   39500    1.0036746    4.3621544    1.5054649    5.8676193 -0.043360792 -0.043360792        47040 
   40000    1.0002602    4.3728642    1.5003435    5.8732076 -0.039530972 -0.039530972        47040 
   40500    1.0006018    4.3768589    1.5008558    5.8777148 -0.081575839 -0.081575839        47040 
   41000   0.99488664    4.3745825    1.4922833    5.8668658  0.050144114  0.050144114        47040 
   41500   0.99987715    4.3818089    1.4997689    5.8815778 -0.022297356 -0.022297356        47040 
   42000    1.0003544     4.374148    1.5004846    5.8746326 -0.026180718 -0.026180718        47040 
   42500    1.0008605    4.3702214    1.5012438    5.8714653 -0.070731856 -0.070731856        47040 
   43000   0.99125725    4.3643599    1.4868394    5.8511993 -0.0059880394 -0.0059880394        47040 
   43500   0.99647863    4.3635326    1.4946712    5.8582039 -0.046477687 -0.046477687        47040 
   44000   0.99972082     4.369031    1.4995344    5.8685654  -0.01932777  -0.01932777        47040 
   44500    1.0077822     4.376204     1.511626      5.88783 -0.081221404 -0.081221404        47040 
   45000    1.0050569     4.381554    1.5075382    5.8890922 -0.059569823 -0.059569823        47040 
   45500   0.99268962    4.3679924    1.4889879    5.8569803  -0.11955759  -0.11955759        47040 
   46000   0.99877643    4.3675295    1.4981178    5.8656473 -0.043059355 -0.043059355        47040 
   46500   0.99888893    4.3718006    1.4982866    5.8700871 0.0089022293 0.0089022293        47040 
   47000    1.0028347    4.3549117     1.504205    5.8591167 -0.058731473 -0.058731473        47040 
   47500   0.99827561    4.3620004    1.4973666    5.8593671 -0.014671717 -0.014671717        47040 
   48000    1.0069088    4.3584957     1.510316    5.8688117 -0.0085290317 -0.0085290317        47040 
   48500    1.0080945    4.3607829    1.5120944    5.8728774 -0.023534062 -0.023534062        47040 
   49000    1.0057349    4.3576188    1.5085553    5.8661741 -0.056670875 -0.056670875        47040 
   49500    1.0033795    4.3690915    1.5050222    5.8741137 -0.046877236 -0.046877236        47040 
   50000   0.99494158    4.3575789    1.4923657    5.8499446 -0.056217905 -0.056217905        47040 
   50500   0.99801034    4.3552971    1.4969687    5.8522658  0.027159828  0.027159828        47040 
   51000    1.0029572    4.3603717    1.5043888    5.8647605 -0.022962287 -0.022962287        47040 
   51500    0.9972138    4.3620085     1.495774    5.8577825  -0.10347863  -0.10347863        47040 
   52000   0.99755086    4.3955607    1.4962795    5.8918402 -0.063780123 -0.063780123        47040 
   52500    1.0072752    4.3700047    1.5108656    5.8808703 -0.070653699 -0.070653699        47040 
   53000    1.0000585    4.3708527    1.5000408    5.8708935 -0.063499642 -0.063499642        47040 
   53500   0.99492603    4.3628307    1.4923424    5.8551731 -0.034702882 -0.034702882        47040 
   54000    1.0002407     4.346169    1.5003142    5.8464831 -0.088476479 -0.088476479        47040 
   54500   0.99059223    4.3508802    1.4858419    5.8367221 -0.052181686 -0.052181686        47040 
   55000   0.99399164    4.3506706    1.4909409    5.8416115  -0.06294835  -0.06294835        47040 
   55500   0.99924163    4.3587696    1.4988156    5.8575852  -0.02949549  -0.02949549        47040 
   56000   0.99849227    4.3758319    1.4976916    5.8735235 0.00086695117 0.00086695117        47040 
   56500   0.99817536    4.3754054    1.4972162    5.8726216 -0.096296452 -0.096296452        47040 
   57000   0.99445184    4.3579112    1.4916311    5.8495423 -0.025415389 -0.025415389        47040 
   57500    1.0014365    4.3491573    1.5021078    5.8512652 -0.057625416 -0.057625416        47040 
   58000    1.0014819     4.362671    1.5021759    5.8648469 -0.021260533 -0.021260533        47040 
   58500   0.99975148    4.3589225    1.4995804    5.8585028 -0.052578118 -0.052578118        47040 
   59000    1.0010171    4.3617194    1.5014788    5.8631982 -0.022056386 -0.022056386        47040 
   59500   0.99967083    4.3645094    1.4994594    5.8639688 -0.060653685 -0.060653685        47040 
   60000    1.0048722    4.3672411    1.5072612    5.8745023 -0.026162368 -0.026162368        47040 
   60500    1.0021382    4.3770028    1.5031603    5.8801631 -0.025533397 -0.025533397        47040 
   61000    1.0034927    4.3751166     1.505192    5.8803087 -0.039277204 -0.039277204        47040 
   61500    1.0082898    4.3733251    1.5123874    5.8857125  0.010478092  0.010478092        47040 
   62000    1.0060631     4.374089    1.5090475    5.8831365 -0.062951019 -0.062951019        47040 
   62500    1.0013734    4.3796401    1.5020131    5.8816533 -0.054063576 -0.054063576        47040 
   63000   0.99195765    4.3732699      1.48789    5.8611599 -0.010281354 -0.010281354        47040 
   63500   0.99632299    4.3702028    1.4944378    5.8646406 -0.033016357 -0.033016357        47040 
   64000    1.0013554    4.3687351    1.5019862    5.8707213 -0.00097614906 -0.00097614906        47040 
   64500   0.99696016    4.3707149    1.4953935    5.8661084 -0.045571798 -0.045571798        47040 
   65000    1.0056399    4.3587752    1.5084126    5.8671878  0.001730895  0.001730895        47040 
   65500    1.0041729    4.3600989    1.5062123    5.8663113 -0.035877508 -0.035877508        47040 
   66000    1.0091712    4.3523496    1.5137095    5.8660591 -0.0082525582 -0.0082525582        47040 
   66500    1.0037925    4.3549753    1.5056417     5.860617 -0.028231711 -0.028231711        47040 
   67000    1.0047489    4.3613763    1.5070763    5.8684525  0.016494573  0.016494573        47040 
   67500   0.99527152    4.3790221    1.4928606    5.8718828 -0.044019663 -0.044019663        47040 
   68000   0.99972581    4.3703341    1.4995419     5.869876  -0.11790234  -0.11790234        47040 
   68500    1.0040447    4.3747618      1.50602    5.8807819 -0.030516406 -0.030516406        47040 
   69000    1.0029478     4.371332    1.5043747    5.8757067 -0.044686066 -0.044686066        47040 
   69500    1.0045612    4.3766869    1.5067946    5.8834815  0.028267422  0.028267422        47040 
   70000    1.0040951    4.3753784    1.5060955    5.8814739 -0.0099883361 -0.0099883361        47040 
   70500    1.0010658    4.3734553    1.5015517    5.8750071 -0.018452348 -0.018452348        47040 
   71000    1.0034441    4.3694524    1.5051191    5.8745714 -0.046682528 -0.046682528        47040 
   71500   0.99581982    4.3594727     1.493683    5.8531558 -0.040199491 -0.040199491        47040 
   72000   0.99467595     4.360204    1.4919673    5.8521713 -0.061588207 -0.061588207        47040 
   72500   0.99497045    4.3598074     1.492409    5.8522165 -0.053432105 -0.053432105        47040 
   73000    1.0066024    4.3532927    1.5098564    5.8631491 -0.073968435 -0.073968435        47040 
   73500   0.99856693    4.3680536    1.4978036    5.8658572 -0.041309901 -0.041309901        47040 
   74000   0.99475233    4.3715268    1.4920819    5.8636087 -0.066075143 -0.066075143        47040 
   74500    1.0027222    4.3595306    1.5040363    5.8635668 -0.069460339 -0.069460339        47040 
   75000    1.0008643    4.3723577    1.5012496    5.8736073 -0.016803852 -0.016803852        47040 
   75500   0.99386185    4.3721058    1.4907462     5.862852  0.031707943  0.031707943        47040 
   76000   0.99854858    4.3791912    1.4977761    5.8769672  0.031108833  0.031108833        47040 
   76500   0.99099225     4.361488    1.4864419      5.84793  0.023082128  0.023082128        47040 
   77000   0.99432067    4.3612409    1.4914344    5.8526753 -0.0035354185 -0.0035354185        47040 
   77500   0.99435053    4.3707535    1.4914792    5.8622327 -0.079714679 -0.079714679        47040 
   78000   0.99880713    4.3752116    1.4981639    5.8733754 -0.0076232843 -0.0076232843        47040 
   78500    1.0011073    4.3660517     1.501614    5.8676658 -0.034635002 -0.034635002        47040 
   79000   0.99122802    4.3870276    1.4867956    5.8738232 -0.018221802 -0.018221802        47040 
   79500   0.99743443    4.3841523    1.4961049    5.8802572 -0.036078048 -0.036078048        47040 
   80000   0.99807305    4.3882113    1.4970628    5.8852741 -0.065979956 -0.065979956        47040 
   80500   0.99620925    4.3835009    1.4942672    5.8777681 -0.026353352 -0.026353352        47040 
   81000   0.99789199    4.3937038    1.4967912     5.890495 -0.043153023 -0.043153023        47040 
   81500   0.99736286    4.3770674    1.4959975     5.873065 -0.026646613 -0.026646613        47040 
   82000   0.99105189    4.3711177    1.4865314    5.8576491 -0.058714907 -0.058714907        47040 
   82500   0.99950809    4.3582982    1.4992153    5.8575135 -0.040278376 -0.040278376        47040 
   83000   0.99617332    4.3792376    1.4942133    5.8734508 -0.021739554 -0.021739554        47040 
   83500    1.0044572    4.3779975    1.5066388    5.8846363 -0.081547484 -0.081547484        47040 
   84000    1.0077142    4.3825611    1.5115241    5.8940852 -0.069387319 -0.069387319        47040 
   84500    1.0024956    4.3918051    1.5036964    5.8955016 -0.050688618 -0.050688618        47040 
   85000    1.0081321    4.3760378    1.5121509    5.8881887 -0.045266224 -0.045266224        47040 
   85500    1.0044791    4.3645236    1.5066715    5.8711952 -0.016352915 -0.016352915        47040 
   86000    1.0076155    4.3635216    1.5113759    5.8748976 0.00081595711 0.00081595711        47040 
   86500    1.0039804    4.3822381    1.5059236    5.8881616  0.038016052  0.038016052        47040 
   87000    1.0000286    4.3695117     1.499996    5.8695077  0.019113759  0.019113759        47040 
   87500   0.99783826    4.3794406    1.4967106    5.8761512   -0.0099788   -0.0099788        47040 
   88000   0.99675523    4.3880754    1.4950861    5.8831615 -0.064774531 -0.064774531        47040 
   88500    1.0007633    4.3918355     1.501098    5.8929335 -0.055808886 -0.055808886        47040 
   89000    1.0083641    4.3915946    1.5124989    5.9040935  -0.10245944  -0.10245944        47040 
   89500    1.0070931    4.3866323    1.5105924    5.8972246  -0.03669914  -0.03669914        47040 
   90000    1.0058461    4.3829354     1.508722    5.8916575 -0.073175771 -0.073175771        47040 
   90500    1.0009921    4.3780334    1.5014412    5.8794746 -0.062752374 -0.062752374        47040 
   91000    1.0007182    4.3681071    1.5010305    5.8691376 -0.083988154 -0.083988154        47040 
   91500   0.99981066    4.3768606    1.4996691    5.8765298 -0.024494014 -0.024494014        47040 
   92000   0.99774575    4.3755387    1.4965719    5.8721106  -0.12176382  -0.12176382        47040 
   92500    1.0008246    4.3770887      1.50119    5.8782787 -0.073332372 -0.073332372        47040 
   93000    1.0037677    4.3783489    1.5056046    5.8839534  -0.03430468  -0.03430468        47040 
   93500   0.99840334     4.373751    1.4975582    5.8713092 -0.066671138 -0.066671138        47040 
   94000   0.99462224    4.3723985    1.4918867    5.8642853 -0.053926888 -0.053926888        47040 
   94500   0.99858695     4.372845    1.4978336    5.8706786    -0.077465    -0.077465        47040 
   95000   0.99685274    4.3723217    1.4952324    5.8675541  -0.14442221  -0.14442221        47040 
   95500     1.002389    4.3708064    1.5035366     5.874343 -0.057347342 -0.057347342        47040 
   96000    1.0069675    4.3762426     1.510404    5.8866466 -0.012706514 -0.012706514        47040 
   96500     1.008839    4.3853487    1.5132111    5.8985599 -0.017089583 -0.017089583        47040 
   97000    1.0094547    4.3725479    1.5141347    5.8866827 0.00043767582 0.00043767582        47040 
   97500    1.0056889    4.3798936    1.5084863    5.8883799 -0.070005627 -0.070005627        47040 
   98000    1.0048757    4.3735675    1.5072664    5.8808339 -0.060891162 -0.060891162        47040 
   98500   0.99210208     4.368112    1.4881066    5.8562186 -0.030862118 -0.030862118        47040 
   99000   0.99594666    4.3681488    1.4938733    5.8620221 -0.046125194 -0.046125194        47040 
   99500    1.0014064    4.3714117    1.5020627    5.8734744 -0.064978729 -0.064978729        47040 
  100000    1.0032578    4.3652767    1.5048397    5.8701163 -0.053483306 -0.053483306        47040 
  100500    1.0021865    4.3742635    1.5032328    5.8774964 -0.040387487 -0.040387487        47040 
  101000      1.00244    4.3752993     1.503613    5.8789123  -0.10522654  -0.10522654        47040 
  101500   0.99782392    4.3807461    1.4966891    5.8774352 -0.076875106 -0.076875106        47040 
  102000    1.0004703    4.3824066    1.5006586    5.8830652 -0.032272809 -0.032272809        47040 
  102500   0.99997475     4.383832    1.4999153    5.8837473 -0.093593149 -0.093593149        47040 
  103000    1.0048538     4.377223    1.5072335    5.8844565   -0.1104226   -0.1104226        47040 
  103500     1.004273    4.3763673    1.5063624    5.8827296 -0.046980792 -0.046980792        47040 
  104000   0.99884939    4.3910562    1.4982273    5.8892834 -0.024834361 -0.024834361        47040 
  104500    1.0035371     4.382211    1.5052586    5.8874695 -0.079654835 -0.079654835        47040 
  105000    1.0066867    4.3752493    1.5099828    5.8852322   -0.1220152   -0.1220152        47040 
  105500    1.0013521    4.3733214    1.5019812    5.8753026 -0.047460222 -0.047460222        47040 
  106000    0.9881392    4.3766756    1.4821625    5.8588381 -0.050188169 -0.050188169        47040 
  106500    1.0031718     4.373071    1.5047107    5.8777816 -0.055427077 -0.055427077        47040 
  107000    1.0051529    4.3717705    1.5076823    5.8794527 -0.042046887 -0.042046887        47040 
  107500    1.0077416    4.3855964    1.5115651    5.8971616 -0.034931519 -0.034931519        47040 
  108000    1.0035265     4.387684    1.5052427    5.8929267 -0.069525468 -0.069525468        47040 
  108500   0.99337601     4.392716    1.4900175    5.8827334  -0.11258842  -0.11258842        47040 
  109000   0.99328973    4.3925906     1.489888    5.8824786 -0.062551745 -0.062551745        47040 
  109500   0.99415454    4.3685634    1.4911852    5.8597486 -0.073141054 -0.073141054        47040 
  110000   0.99910475    4.3589821    1.4986103    5.8575924 -0.073389221 -0.073389221        47040 
  110500    1.0038819    4.3677389    1.5057758    5.8735146 -0.072360059 -0.072360059        47040 
  111000    1.0004887    4.3648104    1.5006862    5.8654966 -0.099195414 -0.099195414        47040 
  111500   0.99918411    4.3728734    1.4987293    5.8716027 -0.0082603409 -0.0082603409        47040 
  112000    1.0016638     4.383246    1.5024488    5.8856948 -0.098144921 -0.098144921        47040 
  112500   0.98970423     4.387998      1.48451     5.872508  -0.13935697  -0.13935697        47040 
  113000   0.99936127    4.3729561    1.4989951    5.8719512   -0.1584176   -0.1584176        47040 
  113500    1.0032643    4.3828589    1.5048495    5.8877083 -0.081441639 -0.081441639        47040 
  114000    1.0055733    4.3745799    1.5083127    5.8828926 -0.071218234 -0.071218234        47040 
  114500   0.99598883    4.3613685    1.4939366    5.8553051 -0.047722263 -0.047722263        47040 
  115000   0.99697336    4.3656303    1.4954133    5.8610436 -0.079142463 -0.079142463        47040 
  115500   0.99580361    4.3735348    1.4936587    5.8671936 -0.098181107 -0.098181107        47040 
  116000    0.9962832    4.3706724    1.4943781    5.8650505  -0.10152809  -0.10152809        47040 
  116500   0.99301365    4.3819539    1.4894739    5.8714279 -0.088842161 -0.088842161        47040 
  117000   0.99686341    4.3772832    1.4952484    5.8725316 -0.065979501 -0.065979501        47040 
  117500   0.98924626    4.3713854     1.483823    5.8552084 -0.047461863 -0.047461863        47040 
  118000   0.99549281    4.3587768    1.4931925    5.8519694  -0.14967069  -0.14967069        47040 
  118500   0.99434822    4.3617843    1.4914757    5.8532601 -0.072133793 -0.072133793        47040 
  119000   0.99953176    4.3642745    1.4992508    5.8635253 -0.091857071 -0.091857071        47040 
  119500    1.0005316    4.3701197    1.5007505    5.8708702 -0.070418552 -0.070418552        47040 
  120000   0.99628231    4.3662971    1.4943768    5.8606739  -0.14483847  -0.14483847        47040 
  120500    1.0006203    4.3790497    1.5008835    5.8799332  -0.11566963  -0.11566963        47040 
  121000    1.0027852    4.3853003    1.5041308    5.8894311  -0.10297888  -0.10297888        47040 
  121500   0.99622522    4.3874802    1.4942911    5.8817713  -0.10748693  -0.10748693        47040 
  122000    1.0010972    4.3730096    1.5015989    5.8746085 -0.091811194 -0.091811194        47040 
  122500    1.0040896     4.361102    1.5060874    5.8671894 -0.030674264 -0.030674264        47040 
  123000    1.0031521    4.3593687    1.5046812    5.8640499  -0.06493545  -0.06493545        47040 
  123500   0.99122689    4.3528287    1.4867939    5.8396226  0.012917746  0.012917746        47040 
  124000   0.99337744    4.3550214    1.4900196     5.845041 -0.062227106 -0.062227106        47040 
  124500   0.99504472    4.3583043    1.4925204    5.8508248  -0.06017617  -0.06017617        47040 
  125000    1.0032807    4.3649076     1.504874    5.8697816 -0.051969609 -0.051969609        47040 
  125500    1.0110002    4.3657476    1.5164528    5.8822004  -0.10756358  -0.10756358        47040 
  126000     1.004699    4.3566775    1.5070014    5.8636789  -0.12563819  -0.12563819        47040 
  126500   0.99800227    4.3763302    1.4969566    5.8732868    -0.086064    -0.086064        47040 
  127000    1.0068761    4.3624548    1.5102669    5.8727217  -0.12694518  -0.12694518        47040 
  127500   0.99951122    4.3633879      1.49922    5.8626078 -0.076606178 -0.076606178        47040 
  128000   0.99838709     4.370969    1.4975338    5.8685029 -0.085052183 -0.085052183        47040 
  128500    1.0044613    4.3609814    1.5066449    5.8676262 -0.059242154 -0.059242154        47040 
  129000     1.003644    4.3593395    1.5054189    5.8647584  -0.05278912  -0.05278912        47040 
  129500     1.010406    4.3497187    1.5155617    5.8652804 -0.054873545 -0.054873545        47040 
  130000   0.99269157    4.3563431    1.4889908     5.845334 -0.079594856 -0.079594856        47040 
  130500   0.99520548    4.3485552    1.4927616    5.8413167 -0.084514241 -0.084514241        47040 
  131000    1.0008558    4.3534484    1.5012369    5.8546852 -0.094069654 -0.094069654        47040 
  131500   0.99917637    4.3604899    1.4987177    5.8592076  -0.13640149  -0.13640149        47040 
  132000   0.99794001    4.3669601    1.4968632    5.8638233  -0.11921607  -0.11921607        47040 
  132500    0.9988004    4.3733411    1.4981538    5.8714949  -0.10115707  -0.10115707        47040 
  133000    1.0029268    4.3640262    1.5043433    5.8683694  -0.07508444  -0.07508444        47040 
  133500   0.99974009    4.3544451    1.4995633    5.8540084  -0.17076577  -0.17076577        47040 
  134000   0.99729175    4.3601889    1.4958909    5.8560797 -0.046932084 -0.046932084        47040 
  134500    1.0042266    4.3574351    1.5062928    5.8637279  -0.09663403  -0.09663403        47040 
  135000   0.99765101    4.3488061    1.4964297    5.8452359 -0.025049869 -0.025049869        47040 
  135500    1.0002274    4.3424326    1.5002942    5.8427268   -0.1435535   -0.1435535        47040 
  136000    1.0013339    4.3505764    1.5019539    5.8525303  -0.11794715  -0.11794715        47040 
  136500   0.99582962    4.3650235    1.4936977    5.8587212 -0.076002835 -0.076002835        47040 
  137000    1.0047828    4.3558218     1.507127    5.8629488 -0.089375327 -0.089375327        47040 
  137500   0.99853917     4.363963    1.4977619    5.8617249 -0.069135019 -0.069135019        47040 
  138000   0.98845843    4.3618388    1.4826413    5.8444801 -0.089857105 -0.089857105        47040 
  138500   0.99161302     4.360469    1.4873731     5.847842  -0.12037388  -0.12037388        47040 
  139000    1.0026965    4.3481415    1.5039978    5.8521393  -0.11398628  -0.11398628        47040 
  139500   0.99990631    4.3583594    1.4998126    5.8581719  -0.08622685  -0.08622685        47040 
  140000   0.99943933    4.3612781    1.4991121    5.8603902  -0.10071431  -0.10071431        47040 
  140500    1.0091756    4.3619415    1.5137161    5.8756577 -0.061191291 -0.061191291        47040 
  141000     1.004041    4.3513211    1.5060145    5.8573356 -0.058715817 -0.058715817        47040 
  141500   0.99480347     4.363122    1.4921586    5.8552806 -0.085545034 -0.085545034        47040 
  142000   0.99109929    4.3506183    1.4866025    5.8372208  -0.12099412  -0.12099412        47040 
  142500   0.98989845    4.3579542    1.4848013    5.8427555  -0.12298404  -0.12298404        47040 
  143000   0.99702874    4.3534858    1.4954964    5.8489822  -0.11549179  -0.11549179        47040 
  143500   0.99434055    4.3641788    1.4914642     5.855643  -0.14493422  -0.14493422        47040 
  144000   0.99900522    4.3603633     1.498461    5.8588243  -0.15312396  -0.15312396        47040 
  144500   0.99857543    4.3600701    1.4978163    5.8578864 -0.050220629 -0.050220629        47040 
  145000     1.005584    4.3574112    1.5083289    5.8657401  -0.12120767  -0.12120767        47040 
  145500     1.001208    4.3639244     1.501765    5.8656894  -0.10316607  -0.10316607        47040 
  146000    1.0098781    4.3449012    1.5147698     5.859671  -0.12187573  -0.12187573        47040 
  146500    1.0039285    4.3543519    1.5058457    5.8601975 -0.088113418 -0.088113418        47040 
  147000    1.0059168    4.3641456     1.508828    5.8729736  -0.11471732  -0.11471732        47040 
  147500   0.99575049    4.3483252    1.4935791    5.8419043 -0.093707297 -0.093707297        47040 
  148000   0.99343856    4.3336856    1.4901113    5.8237969 -0.088338681 -0.088338681        47040 
  148500    1.0023875    4.3438016    1.5035342    5.8473359 -0.091098604 -0.091098604        47040 
  149000    1.0025914    4.3457532    1.5038401    5.8495933 -0.078066553 -0.078066553        47040 
  149500    1.0077259    4.3480043    1.5115417     5.859546 -0.048279591 -0.048279591        47040 
  150000    1.0110098    4.3374681    1.5164673    5.8539353 -0.053050637 -0.053050637        47040 
  150500    0.9993109    4.3352998    1.4989195    5.8342193 -0.055911676 -0.055911676        47040 
  151000     0.996834    4.3419001    1.4952043    5.8371044 -0.056091899 -0.056091899        47040 
  151500    1.0018953     4.344746     1.502796     5.847542 -0.095749336 -0.095749336        47040 
  152000    1.0056941    4.3467128    1.5084941    5.8552069 -0.073175768 -0.073175768        47040 
  152500    1.0023763    4.3557205    1.5035174    5.8592379  -0.11235285  -0.11235285        47040 
  153000   0.99733828    4.3517822    1.4959607    5.8477428 -0.070112785 -0.070112785        47040 
  153500    0.9948941    4.3622279    1.4922945    5.8545224  -0.15994334  -0.15994334        47040 
  154000   0.99541034    4.3506499    1.4930689    5.8437188  -0.16092397  -0.16092397        47040 
  154500   0.99609181    4.3530829     1.494091     5.847174 -0.078403243 -0.078403243        47040 
  155000    1.0039031     4.344248    1.5058076    5.8500556  -0.17128252  -0.17128252        47040 
  155500   0.99627334    4.3434212    1.4943633    5.8377846 -0.098031008 -0.098031008        47040 
  156000   0.99838994    4.3539075    1.4975381    5.8514456  -0.10327842  -0.10327842        47040 
  156500   0.99698263    4.3536447    1.4954272    5.8490719 -0.054641565 -0.054641565        47040 
  157000   0.98798139    4.3525827    1.4819258    5.8345085 -0.089689134 -0.089689134        47040 
  157500    0.9966512    4.3545425    1.4949301    5.8494726 -0.098911395 -0.098911395        47040 
  158000    1.0005936    4.3508572    1.5008434    5.8517007 -0.071874124 -0.071874124        47040 
  158500   0.98923904    4.3534727    1.4838122    5.8372849  -0.10513801  -0.10513801        47040 
  159000   0.99954931     4.347584    1.4992771    5.8468611  -0.10391171  -0.10391171        47040 
  159500    1.0011684      4.35262    1.5017057    5.8543258  -0.12683645  -0.12683645        47040 
  160000     1.000746    4.3473482    1.5010721    5.8484203  -0.10665957  -0.10665957        47040 
  160500   0.99451824    4.3515667    1.4917307    5.8432974 -0.051792751 -0.051792751        47040 
  161000   0.99274211    4.3544877    1.4890666    5.8435543 -0.089860981 -0.089860981        47040 
  161500    1.0004426    4.3625032     1.500617    5.8631202 -0.091320827 -0.091320827        47040 
  162000    1.0013175    4.3643716    1.5019293    5.8663009 -0.077035167 -0.077035167        47040 
  162500    1.0013735    4.3565564    1.5020134    5.8585697  -0.19605545  -0.19605545        47040 
  163000    1.0073543     4.352968    1.5109842    5.8639522   -0.1251046   -0.1251046        47040 
  163500    1.0090227    4.3545582    1.5134868     5.868045 -0.072009747 -0.072009747        47040 
  164000    1.0021354    4.3656492    1.5031562    5.8688054  -0.12614583  -0.12614583        47040 
  164500    1.0026159    4.3602871    1.5038768    5.8641639 -0.093157971 -0.093157971        47040 
  165000     1.000078    4.3517386    1.5000701    5.8518087   -0.1631231   -0.1631231        47040 
  165500    1.0016531    4.3422321    1.5024326    5.8446648  -0.10972578  -0.10972578        47040 
  166000   0.99602109    4.3487866    1.4939849    5.8427715   -0.1550701   -0.1550701        47040 
  166500   0.99466756    4.3498079    1.4919547    5.8417626  -0.11711483  -0.11711483        47040 
  167000    1.0003245    4.3515442    1.5004399    5.8519841  -0.11000587  -0.11000587        47040 
  167500    1.0053206    4.3479481    1.5079337    5.8558818  -0.17500577  -0.17500577        47040 
  168000    1.0055374    4.3504227     1.508259    5.8586816  -0.10720136  -0.10720136        47040 
  168500   0.99996604    4.3627141    1.4999022    5.8626163 -0.092885767 -0.092885767        47040 
  169000   0.99879115    4.3531358    1.4981399    5.8512757 -0.091378462 -0.091378462        47040 
  169500   0.99895795    4.3397861    1.4983901    5.8381762 -0.094788838 -0.094788838        47040 
  170000   0.99458781    4.3380926    1.4918351    5.8299277  -0.10154392  -0.10154392        47040 
  170500   0.99578713    4.3310381     1.493634    5.8246722 -0.070340157 -0.070340157        47040 
  171000   0.99444072    4.3328192    1.4916145    5.8244337  -0.12068745  -0.12068745        47040 
  171500    1.0009233    4.3485597     1.501338    5.8498977 -0.075422324 -0.075422324        47040 
  172000   0.99903094    4.3522964    1.4984996     5.850796   -0.1064971   -0.1064971        47040 
  172500    1.0094229    4.3482204     1.514087    5.8623074  -0.13101813  -0.13101813        47040 
  173000    1.0112061    4.3497087    1.5167617    5.8664704 -0.061860609 -0.061860609        47040 
  173500   0.99701447    4.3467854     1.495475    5.8422604 -0.061950053 -0.061950053        47040 
  174000    1.0014601    4.3455972    1.5021432    5.8477404  -0.13830027  -0.13830027        47040 
  174500    1.0063582    4.3370515    1.5094901    5.8465416 -0.092919262 -0.092919262        47040 
  175000    1.0029979    4.3369249    1.5044499    5.8413748 -0.050277899 -0.050277899        47040 
  175500   0.99953708    4.3399487    1.4992588    5.8392075   -0.1145133   -0.1145133        47040 
  176000   0.99144475    4.3452549    1.4871207    5.8323755  -0.11067853  -0.11067853        47040 
  176500   0.99659289    4.3524493    1.4948426     5.847292  -0.08524012  -0.08524012        47040 
  177000   0.99401916    4.3513319    1.4909822     5.842314  -0.11645944  -0.11645944        47040 
  177500    1.0010641    4.3542522    1.5015492    5.8558013  -0.12004014  -0.12004014        47040 
  178000      1.00276    4.3494378     1.504093    5.8535309  -0.14950612  -0.14950612        47040 
  178500    1.0016164    4.3467951    1.5023777    5.8491728  -0.10468951  -0.10468951        47040 
  179000   0.99927364    4.3394619    1.4988636    5.8383255 -0.037595435 -0.037595435        47040 
  179500   0.99835687     4.337862    1.4974885    5.8353505  -0.13854434  -0.13854434        47040 
  180000   0.99897797    4.3446289    1.4984201    5.8430491  -0.16879957  -0.16879957        47040 
  180500   0.99684946    4.3613115    1.4952275    5.8565389 -0.097474288 -0.097474288        47040 
  181000   0.99788054    4.3437527     1.496774    5.8405267  -0.14065999  -0.14065999        47040 
  181500   0.99939104    4.3428037    1.4990397    5.8418434  -0.10386104  -0.10386104        47040 
  182000   0.99486026    4.3419885    1.4922438    5.8342323  -0.13060318  -0.13060318        47040 
  182500    1.0075849    4.3532987    1.5113301    5.8646288 -0.078875879 -0.078875879        47040 
  183000    1.0029457    4.3388222    1.5043715    5.8431937 -0.085840886 -0.085840886        47040 
  183500    1.0021277    4.3291232    1.5031446    5.8322678 -0.044253157 -0.044253157        47040 
  184000   0.99872713    4.3369947    1.4980439    5.8350386 -0.041208533 -0.041208533        47040 
  184500    1.0016128      4.32676    1.5023723    5.8291323 -0.082933101 -0.082933101        47040 
  185000    1.0006974     4.312606    1.5009992    5.8136052 -0.094929032 -0.094929032        47040 
  185500    0.9942196    4.3339404    1.4912828    5.8252232 -0.085420726 -0.085420726        47040 
  186000    1.0036872    4.3343094    1.5054837    5.8397932  -0.13272131  -0.13272131        47040 
  186500   0.99647945    4.3395271    1.4946725    5.8341995 -0.095807135 -0.095807135        47040 
  187000   0.98869665    4.3463504    1.4829986     5.829349  -0.11106003  -0.11106003        47040 
  187500   0.99559587    4.3404874    1.4933471    5.8338346  -0.16208355  -0.16208355        47040 
  188000   0.99819618    4.3416144    1.4972475    5.8388619  -0.14425099  -0.14425099        47040 
  188500   0.99510934    4.3560343    1.4926174    5.8486517 -0.050883724 -0.050883724        47040 
  189000    1.0005295    4.3447476    1.5007473    5.8454949  -0.12964995  -0.12964995        47040 
  189500    1.0042868    4.3428458    1.5063832     5.849229   -0.1304785   -0.1304785        47040 
  190000    1.0013862    4.3389896    1.5020324     5.841022 -0.086563483 -0.086563483        47040 
  190500    1.0003118    4.3588101    1.5004209    5.8592309  -0.12284096  -0.12284096        47040 
  191000    1.0020714    4.3615364    1.5030601    5.8645965  -0.13444746  -0.13444746        47040 
  191500    1.0134095    4.3464186    1.5200667    5.8664853  -0.08508994  -0.08508994        47040 
  192000   0.99654216    4.3511189    1.4947665    5.8458854   -0.1017404   -0.1017404        47040 
  192500    1.0004962    4.3402311    1.5006974    5.8409285 -0.073183021 -0.073183021        47040 
  193000    1.0045765    4.3324321    1.5068176    5.8392497 -0.086218761 -0.086218761        47040 
  193500    1.0016451    4.3351078    1.5024208    5.8375286 -0.063845723 -0.063845723        47040 
  194000    1.0051512     4.331542    1.5076797    5.8392217 -0.060549479 -0.060549479        47040 
  194500    1.0068618    4.3445976    1.5102455    5.8548431 -0.060942842 -0.060942842        47040 
  195000    1.0000223    4.3589482    1.4999866    5.8589348 -0.083464923 -0.083464923        47040 
  195500    1.0017161    4.3481556    1.5025272    5.8506828  -0.14504701  -0.14504701        47040 
  196000   0.99738302    4.3412517    1.4960278    5.8372794 -0.072972342 -0.072972342        47040 
  196500    0.9947028    4.3418458    1.4920076    5.8338534 -0.071050581 -0.071050581        47040 
  197000   0.99350246    4.3339598    1.4902071    5.8241669 -0.065181102 -0.065181102        47040 
  197500   0.99463892    4.3240853    1.4919117     5.815997 -0.083760665 -0.083760665        47040 
  198000   0.99741025    4.3208945    1.4960686    5.8169632 -0.054885873 -0.054885873        47040 
  198500    1.0001843    4.3117359    1.5002295    5.8119654  -0.11166604  -0.11166604        47040 
  199000    1.0099164    4.3347816    1.5148272    5.8496088 -0.041478078 -0.041478078        47040 
  199500    1.0009724    4.3413861    1.5014117    5.8427978 -0.027400058 -0.027400058        47040 
  200000    1.0050665    4.3375066    1.5075526    5.8450592 -0.080991145 -0.080991145        47040 
  200500   0.99879814    4.3401124    1.4981504    5.8382628  -0.11920091  -0.11920091        47040 
  201000   0.99614941    4.3414091    1.4941774    5.8355866 -0.027600731 -0.027600731        47040 
  201500    1.0006032    4.3351333    1.5008579    5.8359913  -0.10830188  -0.10830188        47040 
  202000    1.0047556    4.3369468    1.5070863    5.8440332  -0.16582736  -0.16582736        47040 
  202500   0.99832033     4.338785    1.4974337    5.8362187  -0.12934865  -0.12934865        47040 
  203000   0.99275736     4.338499    1.4890895    5.8275885  -0.10815412  -0.10815412        47040 
  203500   0.98525001     4.332612    1.4778288    5.8104408 -0.098475219 -0.098475219        47040 
  204000    1.0007293    4.3333248    1.5010471    5.8343719 -0.099096743 -0.099096743        47040 
  204500    1.0079599    4.3257169    1.5118926    5.8376095 -0.077463246 -0.077463246        47040 
  205000    1.0061411    4.3271831    1.5091644    5.8363475 -0.019521446 -0.019521446        47040 
  205500    1.0021334    4.3339459    1.5031531     5.837099 -0.024917089 -0.024917089        47040 
  206000    1.0010698    4.3230136    1.5015578    5.8245714 -0.092998486 -0.092998486        47040 
  206500   0.99540989    4.3277357    1.4930682    5.8208039  -0.14403979  -0.14403979        47040 
  207000    1.0007508    4.3363913    1.5010792    5.8374705   -0.1518251   -0.1518251        47040 
  207500    1.0019128     4.334272    1.5028222    5.8370942  -0.09307515  -0.09307515        47040 
  208000    1.0010232    4.3364385    1.5014878    5.8379263 -0.071211053 -0.071211053        47040 
  208500   0.99645238    4.3364074    1.4946319    5.8310393 -0.037298925 -0.037298925        47040 
  209000   0.99926804    4.3312984    1.4988552    5.8301537 -0.072775499 -0.072775499        47040 
  209500    1.0024094    4.3430367    1.5035671    5.8466037  -0.14049465  -0.14049465        47040 
  210000   0.99487264    4.3473225    1.4922623    5.8395848  -0.09595344  -0.09595344        47040 
  210500    1.0043156    4.3381762    1.5064263    5.8446026  -0.14023594  -0.14023594        47040 
  211000   0.99023656    4.3347234    1.4853084    5.8200318 -0.072785922 -0.072785922        47040 
  211500    1.0047627    4.3334654     1.507097    5.8405624 -0.086596405 -0.086596405        47040 
  212000    1.0044479    4.3349427    1.5066248    5.8415675 -0.082936079 -0.082936079        47040 
  212500    1.0049174    4.3328143     1.507329    5.8401433  -0.08689426  -0.08689426        47040 
  213000    1.0050259    4.3473943    1.5074917     5.854886  -0.09903882  -0.09903882        47040 
  213500    1.0045104    4.3499604    1.5067185    5.8566788  -0.11134687  -0.11134687        47040 
  214000    1.0004514    4.3622544    1.5006302    5.8628846  -0.11912549  -0.11912549        47040 
  214500    1.0067046    4.3579148    1.5100098    5.8679246 -0.075652668 -0.075652668        47040 
  215000    1.0017044     4.338596    1.5025097    5.8411057  -0.16992599  -0.16992599        47040 
  215500   0.99724903    4.3391532    1.4958268      5.83498 -0.073790544 -0.073790544        47040 
  216000    1.0016509    4.3365953    1.5024294    5.8390246  -0.17265512  -0.17265512        47040 
  216500   0.99091535    4.3473256    1.4863266    5.8336522  -0.18968935  -0.18968935        47040 
  217000   0.99464838    4.3477774    1.4919259    5.8397033  -0.10821075  -0.10821075        47040 
  217500   0.99634001    4.3464525    1.4944633    5.8409158  -0.10007787  -0.10007787        47040 
  218000   0.99549225    4.3472607    1.4931917    5.8404524  -0.13406424  -0.13406424        47040 
  218500    1.0008152    4.3355091    1.5011759     5.836685 -0.099344252 -0.099344252        47040 
  219000    0.9978458    4.3558123    1.4967219    5.8525342 -0.066887551 -0.066887551        47040 
  219500    1.0020703    4.3388942    1.5030585    5.8419527  -0.08165546  -0.08165546        47040 
  220000     1.004431     4.332758    1.5065994    5.8393575 -0.090410158 -0.090410158        47040 
  220500    1.0046004    4.3254531    1.5068534    5.8323065  -0.11686231  -0.11686231        47040 
  221000    1.0078494    4.3250578    1.5117269    5.8367847 -0.093721253 -0.093721253        47040 
  221500    1.0053314    4.3233817      1.50795    5.8313317  -0.11195286  -0.11195286        47040 
  222000     1.003821    4.3236422    1.5056845    5.8293267 -0.072074646 -0.072074646        47040 
  222500    1.0020045    4.3213657    1.5029598    5.8243254 -0.099303551 -0.099303551        47040 
  223000    1.0032319    4.3353497    1.5048008    5.8401505 -0.068318644 -0.068318644        47040 
  223500   0.99712331    4.3351492    1.4956382    5.8307875  -0.16795493  -0.16795493        47040 
  224000    1.0007254    4.3271106    1.5010412    5.8281518  -0.11329189  -0.11329189        47040 
  224500   0.99197245    4.3384864    1.4879122    5.8263986  -0.14184483  -0.14184483        47040 
  225000    1.0033635    4.3450349    1.5049983    5.8500332   -0.0588091   -0.0588091        47040 
  225500    0.9959397    4.3603953    1.4938629    5.8542582  -0.10431024  -0.10431024        47040 
  226000   0.99728648    4.3557583     1.495883    5.8516413 -0.095053883 -0.095053883        47040 
  226500   0.99634547    4.3617424    1.4944715    5.8562139  -0.10165847  -0.10165847        47040 
  227000    1.0066938    4.3552491    1.5099935    5.8652425  -0.12437355  -0.12437355        47040 
  227500   0.99976916    4.3632897    1.4996069    5.8628966  -0.12707926  -0.12707926        47040 
  228000    1.0048258    4.3485493    1.5071916    5.8557409 -0.094312936 -0.094312936        47040 
  228500   0.99894606    4.3486006    1.4983723    5.8469728 -0.052633516 -0.052633516        47040 
  229000   0.99913379    4.3298781    1.4986538    5.8285319  -0.10469944  -0.10469944        47040 
  229500    1.0067629    4.3210725    1.5100972    5.8311697 -0.064320322 -0.064320322        47040 
  230000    1.0057954    4.3267408    1.5086459    5.8353867 -0.097977431 -0.097977431        47040 
  230500    1.0036175    4.3226557    1.5053791    5.8280348 -0.052867532 -0.052867532        47040 
  231000    1.0032565    4.3252558    1.5048377    5.8300935 -0.0014550667 -0.0014550667        47040 
  231500    1.0003451    4.3338808    1.5004707    5.8343515  -0.10192134  -0.10192134        47040 
  232000    1.0018253    4.3372588     1.502691    5.8399498   -0.1738319   -0.1738319        47040 
  232500    1.0003502    4.3466218    1.5004783    5.8471001  -0.15696651  -0.15696651        47040 
  233000    1.0034048    4.3553202    1.5050602    5.8603805 -0.078711191 -0.078711191        47040 
  233500    1.0038672    4.3433715    1.5057537    5.8491252 -0.029339448 -0.029339448        47040 
  234000   0.99202294    4.3436361    1.4879879     5.831624  -0.11944488  -0.11944488        47040 
  234500    1.0049907    4.3279094    1.5074389    5.8353483 -0.036970569 -0.036970569        47040 
  235000    1.0092888    4.3224704    1.5138859    5.8363563  -0.10271061  -0.10271061        47040 
  235500    1.0074341    4.3243351     1.511104     5.835439 -0.083954927 -0.083954927        47040 
  236000    1.0002943    4.3411272    1.5003946    5.8415218 -0.043153983 -0.043153983        47040 
  236500    1.0098061    4.3402998    1.5146618    5.8549616 -0.079579145 -0.079579145        47040 
  237000    1.0073201    4.3463734     1.510933    5.8573064   -0.1065951   -0.1065951        47040 
  237500    1.0019876    4.3391989    1.5029345    5.8421334 -0.075621224 -0.075621224        47040 
  238000   0.99455405    4.3562643    1.4917845    5.8480487 -0.075940539 -0.075940539        47040 
  238500    1.0051573      4.36375    1.5076889    5.8714388  -0.12766615  -0.12766615        47040 
  239000    1.0063633    4.3499546    1.5094978    5.8594523 -0.054821868 -0.054821868        47040 
  239500    1.0001698    4.3423902    1.5002078     5.842598 -0.047519882 -0.047519882        47040 
  240000   0.99880417    4.3463942    1.4981594    5.8445536  -0.10825209  -0.10825209        47040 
  240500    1.0013069    4.3286445    1.5019134    5.8305579  -0.11317941  -0.11317941        47040 
  241000   0.99851737    4.3270103    1.4977293    5.8247396  -0.17271436  -0.17271436        47040 
  241500   0.99989173    4.3454505    1.4997907    5.8452412 -0.090408031 -0.090408031        47040 
  242000    0.9949639    4.3512992    1.4923992    5.8436984  -0.11132286  -0.11132286        47040 
  242500    1.0004342    4.3548077    1.5006044    5.8554121  -0.12517003  -0.12517003        47040 
  243000   0.98735251    4.3479109    1.4809825    5.8288933  -0.13960279  -0.13960279        47040 
  243500   0.99632088    4.3358147    1.4944346    5.8302493 -0.053000778 -0.053000778        47040 
  244000   0.99528166     4.339178    1.4928758    5.8320538 -0.046479062 -0.046479062        47040 
  244500   0.99649791    4.3356447    1.4947002    5.8303449 -0.057571165 -0.057571165        47040 
  245000   0.99341804    4.3080596    1.4900805    5.7981401 -0.091013478 -0.091013478        47040 
  245500   0.99530723    4.3040733    1.4929142    5.7969875 -0.061013719 -0.061013719        47040 
  246000    1.0031357    4.3273768    1.5046565    5.8320334 -0.062038676 -0.062038676        47040 
  246500   0.99957459    4.3252515     1.499315    5.8245666 -0.060002471 -0.060002471        47040 
  247000   0.99467106    4.3346297      1.49196    5.8265897 -0.096698338 -0.096698338        47040 
  247500    1.0018547    4.3405178    1.5027352    5.8432529  -0.12578527  -0.12578527        47040 
  248000      1.00025    4.3486519    1.5003281      5.84898  -0.18960366  -0.18960366        47040 
  248500   0.99011924    4.3670687    1.4851325    5.8522011    -0.105702    -0.105702        47040 
  249000   0.99765429    4.3598665    1.4964347    5.8563011 -0.096209088 -0.096209088        47040 
  249500   0.99737115    4.3533337      1.49601    5.8493437 -0.092353546 -0.092353546        47040 
  250000   0.99644413    4.3565648    1.4946195    5.8511843  -0.13554482  -0.13554482        47040 
  250500    1.0041282    4.3257642    1.5061452    5.8319094  -0.15581966  -0.15581966        47040 
  251000   0.99276994    4.3381966    1.4891084     5.827305 -0.040803444 -0.040803444        47040 
  251500   0.99615751    4.3375309    1.4941896    5.8317204 -0.086808272 -0.086808272        47040 
  252000    1.0053616    4.3344106    1.5079953    5.8424059  -0.10503551  -0.10503551        47040 
  252500    1.0036852    4.3412937    1.5054808    5.8467745 -0.089865354 -0.089865354        47040 
  253000    1.0052186     4.348026    1.5077808    5.8558068 -0.085621302 -0.085621302        47040 
  253500    1.0048037    4.3411075    1.5071585    5.8482661 -0.080284384 -0.080284384        47040 
  254000   0.99923834    4.3414372    1.4988107    5.8402479 -0.095694762 -0.095694762        47040 
  254500    0.9934128    4.3490148    1.4900726    5.8390875  -0.09721853  -0.09721853        47040 
  255000    1.0038751    4.3347327    1.5057656    5.8404982 -0.062191277 -0.062191277        47040 
  255500    1.0080437    4.3411057    1.5120183     5.853124  -0.05887137  -0.05887137        47040 
  256000    1.0098743    4.3468638    1.5147641    5.8616279  -0.11075279  -0.11075279        47040 
  256500    1.0015986    4.3356982     1.502351    5.8380492  -0.14670096  -0.14670096        47040 
  257000     1.000983     4.336891    1.5014275    5.8383185  -0.14937504  -0.14937504        47040 
  257500   0.99682764    4.3425468    1.4951947    5.8377415  -0.12845679  -0.12845679        47040 
  258000   0.99841611    4.3459395    1.4975774    5.8435169  -0.10083707  -0.10083707        47040 
  258500   0.99877628    4.3554157    1.4981176    5.8535333   -0.1067204   -0.1067204        47040 
  259000    1.0012159    4.3557763    1.5017769    5.8575531 -0.099966125 -0.099966125        47040 
  259500    1.0047623    4.3541887    1.5070964    5.8612851 -0.087928675 -0.087928675        47040 
  260000   0.99411785    4.3514094    1.4911302    5.8425395  -0.10260287  -0.10260287        47040 
  260500   0.99672874     4.354864    1.4950464    5.8499104  -0.12607942  -0.12607942        47040 
  261000    1.0046795    4.3371973    1.5069721    5.8441694 -0.090603527 -0.090603527        47040 
  261500    1.0019221    4.3311826    1.5028361    5.8340188 -0.077812194 -0.077812194        47040 
  262000    1.0000417    4.3359915    1.5000156    5.8360071 -0.091611398 -0.091611398        47040 
  262500   0.99396135    4.3521386    1.4908954     5.843034  -0.12818912  -0.12818912        47040 
  263000    1.0035167    4.3415552     1.505228    5.8467832  -0.10755963  -0.10755963        47040 
  263500    1.0023267     4.354927    1.5034431      5.85837 -0.095441899 -0.095441899        47040 
  264000    1.0082784    4.3424195    1.5123703    5.8547898   -0.1362057   -0.1362057        47040 
  264500    1.0025317    4.3459353    1.5037505    5.8496859  -0.11709823  -0.11709823        47040 
  265000    1.0000198    4.3554941    1.4999828    5.8554769  -0.13014943  -0.13014943        47040 
  265500     1.001421     4.355599    1.5020846    5.8576836  -0.10026354  -0.10026354        47040 
  266000    1.0066133    4.3650309    1.5098727    5.8749037  -0.15288246  -0.15288246        47040 
  266500    1.0035872    4.3610048    1.5053338    5.8663386 -0.084506058 -0.084506058        47040 
  267000    1.0021573    4.3586099    1.5031889    5.8617988   -0.1210756   -0.1210756        47040 
  267500    1.0010374    4.3549152    1.5015092    5.8564244  -0.16218113  -0.16218113        47040 
  268000     1.002487    4.3312217    1.5036835    5.8349052  -0.10753478  -0.10753478        47040 
  268500   0.99635316    4.3414607     1.494483    5.8359437 -0.083320476 -0.083320476        47040 
  269000    1.0049057    4.3247013    1.5073114    5.8320127 -0.067060392 -0.067060392        47040 
  269500   0.99435749    4.3319441    1.4914896    5.8234337 -0.076809079 -0.076809079        47040 
  270000   0.99728066    4.3384829    1.4958742    5.8343571  -0.12834487  -0.12834487        47040 
  270500    1.0008592    4.3403065    1.5012419    5.8415484  -0.11373644  -0.11373644        47040 
  271000   0.99769821    4.3276907    1.4965006    5.8241913  -0.15300611  -0.15300611        47040 
  271500   0.98686996    4.3384967    1.4802587    5.8187554  -0.10603792  -0.10603792        47040 
  272000    1.0005798    4.3231741    1.5008228    5.8239969 -0.069886407 -0.069886407        47040 
  272500   0.99483284    4.3196271    1.4922026    5.8118297   -0.1004558   -0.1004558        47040 
  273000    1.0027125    4.3271758    1.5040217    5.8311976 -0.026855148 -0.026855148        47040 
  273500   0.99361861    4.3269878    1.4903813    5.8173692  -0.11567195  -0.11567195        47040 
  274000   0.99642325    4.3321217    1.4945882    5.8267098 -0.083016151 -0.083016151        47040 
  274500   0.99846109    4.3313992    1.4976448    5.8290441 -0.087648243 -0.087648243        47040 
  275000    1.0062324    4.3535256    1.5093014     5.862827  -0.10669788  -0.10669788        47040 
  275500    0.9969462    4.3504456    1.4953726    5.8458182 -0.077516847 -0.077516847        47040 
  276000   0.99502876    4.3500125    1.4924965    5.8425089  -0.21704218  -0.21704218        47040 
  276500   0.99951041    4.3516595    1.4992188    5.8508782  -0.22094761  -0.22094761        47040 
  277000    1.0004366    4.3578113     1.500608    5.8584193  -0.14424618  -0.14424618        47040 
  277500    1.0064156    4.3530442    1.5095762    5.8626204  -0.15756008  -0.15756008        47040 
  278000   0.99496888    4.3494591    1.4924067    5.8418658 -0.093041915 -0.093041915        47040 
  278500   0.99733134    4.3528157    1.4959503     5.848766  -0.14678225  -0.14678225        47040 
  279000     1.000968    4.3318241    1.5014051    5.8332292 -0.035797001 -0.035797001        47040 
  279500    1.0009084    4.3447577    1.5013157    5.8460734 -0.091054652 -0.091054652        47040 
  280000    1.0065929    4.3354605    1.5098421    5.8453026  -0.12757597  -0.12757597        47040 
  280500    1.0048703    4.3343103    1.5072584    5.8415687 -0.049185755 -0.049185755        47040 
  281000    1.0088385    4.3427309    1.5132104    5.8559413 -0.082076072 -0.082076072        47040 
  281500    1.0087214    4.3319384    1.5130348    5.8449732 -0.038606998 -0.038606998        47040 
  282000    1.0022868    4.3362339    1.5033833    5.8396172  -0.12101949  -0.12101949        47040 
  282500   0.99793344    4.3399383    1.4968534    5.8367917  -0.09776887  -0.09776887        47040 
  283000   0.99473678    4.3365043    1.4920585    5.8285629  -0.15540146  -0.15540146        47040 
  283500    1.0018612    4.3483127    1.5027449    5.8510576  -0.12869242  -0.12869242        47040 
  284000    1.0035369    4.3411445    1.5052583    5.8464028  -0.13547656  -0.13547656        47040 
  284500   0.99695268    4.3463595    1.4953823    5.8417418  -0.12333485  -0.12333485        47040 
  285000   0.99701205     4.338087    1.4954713    5.8335583  -0.11636932  -0.11636932        47040 
  285500   0.99163913    4.3307292    1.4874122    5.8181414  -0.11919959  -0.11919959        47040 
  286000    1.0000249     4.332884    1.4999904    5.8328744 -0.024498701 -0.024498701        47040 
  286500    1.0041511    4.3254905    1.5061796    5.8316701 -0.089397915 -0.089397915        47040 
  287000    1.0058459    4.3381033    1.5087216    5.8468249 -0.094924062 -0.094924062        47040 
  287500    1.0014044    4.3462973    1.5020597     5.848357 -0.052108976 -0.052108976        47040 
  288000   0.99528179    4.3411518     1.492876    5.8340278  -0.12880159  -0.12880159        47040 
  288500   0.99744065    4.3364832    1.4961142    5.8325974  -0.12729631  -0.12729631        47040 
  289000   0.99857881    4.3388535    1.4978214     5.836675 -0.071137455 -0.071137455        47040 
  289500    1.0038425     4.324334    1.5057166    5.8300506  -0.11809635  -0.11809635        47040 
  290000    0.9962032    4.3188399    1.4942581     5.813098 -0.086394314 -0.086394314        47040 
  290500   0.99809073     4.329327    1.4970893    5.8264164 -0.032100868 -0.032100868        47040 
  291000    1.0007121    4.3307636    1.5010213    5.8317849 -0.064833743 -0.064833743        47040 
  291500    0.9982151    4.3403663    1.4972759    5.8376421 -0.063790168 -0.063790168        47040 
  292000    1.0006516    4.3272002    1.5009305    5.8281307 -0.081512108 -0.081512108        47040 
  292500    1.0053215    4.3332465    1.5079351    5.8411816 -0.061534982 -0.061534982        47040 
  293000    1.0003537     4.341878    1.5004836    5.8423617 -0.038401823 -0.038401823        47040 
  293500   0.99950965    4.3388978    1.4992176    5.8381155  -0.11808766  -0.11808766        47040 
  294000    1.0032555    4.3309954    1.5048363    5.8358317 -0.099611781 -0.099611781        47040 
  294500   0.99946909    4.3391088    1.4991568    5.8382655  -0.13275749  -0.13275749        47040 
  295000   0.99005028    4.3390338     1.485029    5.8240628  -0.16920519  -0.16920519        47040 
  295500   0.99696081    4.3439021    1.4953945    5.8392966  -0.13909979  -0.13909979        47040 
  296000   0.99271729    4.3506985    1.4890294    5.8397279  -0.10718748  -0.10718748        47040 
  296500   0.99677588    4.3539104    1.4951171    5.8490275  -0.10004881  -0.10004881        47040 
  297000    1.0012758     4.343533    1.5018668    5.8453998 -0.098672841 -0.098672841        47040 
  297500   0.99442075    4.3401964    1.4915845    5.8317809   -0.1028642   -0.1028642        47040 
  298000   0.99813303    4.3302923    1.4971528     5.827445  -0.14180755  -0.14180755        47040 
  298500    1.0016042    4.3315697    1.5023593     5.833929 -0.050879937 -0.050879937        47040 
  299000   0.99162173    4.3362001    1.4873861    5.8235862 -0.085030686 -0.085030686        47040 
  299500   0.99571596    4.3374505    1.4935273    5.8309777 -0.061735357 -0.061735357        47040 
  300000    1.0012887     4.334843     1.501886     5.836729 -0.052382424 -0.052382424        47040 
  300500    1.0053179    4.3496567    1.5079297    5.8575864 -0.083640597 -0.083640597        47040 
  301000    1.0077528     4.348705    1.5115819     5.860287  -0.10121429  -0.10121429        47040 
  301500   0.99887429    4.3525384    1.4982646    5.8508031   -0.1134647   -0.1134647        47040 
  302000   0.99611535    4.3339106    1.4941263    5.8280369  -0.13542923  -0.13542923        47040 
  302500    0.9944309    4.3420377    1.4915997    5.8336374 -0.088316452 -0.088316452        47040 
  303000     1.001375    4.3316262    1.5020156    5.8336418  -0.15524887  -0.15524887        47040 
  303500   0.99712098    4.3446354    1.4956347    5.8402701  -0.10764538  -0.10764538        47040 
  304000   0.99726369    4.3380473    1.4958488     5.833896  -0.12937371  -0.12937371        47040 
  304500   0.99953094    4.3426416    1.4992496    5.8418911  -0.12127176  -0.12127176        47040 
  305000    1.0003166    4.3558929    1.5004281     5.856321  -0.10927835  -0.10927835        47040 
  305500   0.99668162    4.3551586    1.4949757    5.8501343  -0.13655976  -0.13655976        47040 
  306000    1.0028162    4.3425084    1.5041773    5.8466857 -0.096621057 -0.096621057        47040 
  306500    1.0024447    4.3275154      1.50362    5.8311354 -0.070718108 -0.070718108        47040 
  307000   0.99763624    4.3347624    1.4964076      5.83117 -0.098600147 -0.098600147        47040 
  307500   0.99834835    4.3340019    1.4974757    5.8314777 -0.079001368 -0.079001368        47040 
  308000    1.0054346    4.3316599    1.5081048    5.8397647  -0.15104825  -0.15104825        47040 
  308500    1.0056425    4.3332791    1.5084166    5.8416957    -0.130653    -0.130653        47040 
  309000   0.99732803    4.3563505    1.4959453    5.8522958  -0.14102581  -0.14102581        47040 
  309500    1.0050384    4.3557779    1.5075104    5.8632883 -0.094766085 -0.094766085        47040 
  310000    1.0063791    4.3642416    1.5095215    5.8737631 -0.075370725 -0.075370725        47040 
  310500    1.0026552     4.358607    1.5039358    5.8625428 -0.093360651 -0.093360651        47040 
  311000   0.99805554    4.3469108    1.4970365    5.8439473 -0.066035375 -0.066035375        47040 
  311500   0.99794833    4.3452436    1.4968757    5.8421193  -0.17498627  -0.17498627        47040 
  312000   0.99414572    4.3344476     1.491172    5.8256196  -0.16830648  -0.16830648        47040 
  312500    1.0019448    4.3251638    1.5028702     5.828034  -0.10260406  -0.10260406        47040 
  313000   0.99784184    4.3341784     1.496716    5.8308944   -0.1249169   -0.1249169        47040 
  313500   0.99408482    4.3238274    1.4910806     5.814908  -0.14406986  -0.14406986        47040 
  314000    1.0060019    4.3437564    1.5089558    5.8527121 -0.083269004 -0.083269004        47040 
  314500    1.0045543    4.3495368    1.5067843    5.8563211   -0.1038928   -0.1038928        47040 
  315000     1.006111    4.3578557    1.5091193    5.8669751 -0.075039096 -0.075039096        47040 
  315500   0.99143187    4.3397676    1.4871013    5.8268689 -0.087783559 -0.087783559        47040 
  316000   0.99976586    4.3320921    1.4996019     5.831694 -0.066846424 -0.066846424        47040 
  316500    1.0004848    4.3506926    1.5006804     5.851373  -0.09763967  -0.09763967        47040 
  317000    1.0023699    4.3469704    1.5035078    5.8504782 -0.094331614 -0.094331614        47040 
  317500    1.0087627    4.3311184    1.5130967    5.8442151 -0.067548707 -0.067548707        47040 
  318000    1.0003398    4.3370438    1.5004629    5.8375067 -0.098755655 -0.098755655        47040 
  318500   0.99802466    4.3396434    1.4969902    5.8366336    -0.112908    -0.112908        47040 
  319000    1.0029521    4.3412994    1.5043811    5.8456806  -0.16138848  -0.16138848        47040 
  319500   0.99951716    4.3429273    1.4992289    5.8421562  -0.16288447  -0.16288447        47040 
  320000    1.0042365    4.3408943    1.5063076    5.8472019 -0.071632812 -0.071632812        47040 
  320500   0.99873455    4.3584833     1.498055    5.8565383  -0.10550989  -0.10550989        47040 
  321000   0.99558967    4.3515171    1.4933378     5.844855  -0.14054733  -0.14054733        47040 
  321500   0.99805924    4.3389987    1.4970421    5.8360407 -0.082365611 -0.082365611        47040 
  322000   0.99857616    4.3281717    1.4978174    5.8259891   -0.1783448   -0.1783448        47040 
  322500   0.99833883    4.3269094    1.4974614    5.8243708  -0.16344005  -0.16344005        47040 
  323000   0.98907961    4.3326218     1.483573    5.8161948  -0.12510584  -0.12510584        47040 
  323500   0.99636829    4.3316053    1.4945057     5.826111 -0.064197507 -0.064197507        47040 
  324000    1.0001967    4.3333832    1.5002482    5.8336314  -0.10383471  -0.10383471        47040 
  324500   0.99787688     4.336255    1.4967685    5.8330236  -0.15943864  -0.15943864        47040 
  325000   0.99831725    4.3533975    1.4974291    5.8508266 -0.074011772 -0.074011772        47040 
  325500    1.0078719     4.340585    1.5117606    5.8523456  -0.13022593  -0.13022593        47040 
  326000    1.0088727    4.3428144    1.5132618    5.8560762 -0.079584264 -0.079584264        47040 
  326500   0.99995605    4.3447064    1.4998872    5.8445936  -0.08807909  -0.08807909        47040 
  327000    1.0015738    4.3373389    1.5023138    5.8396527 -0.084906822 -0.084906822        47040 
  327500   0.99960087    4.3404901    1.4993545    5.8398446 -0.068099494 -0.068099494        47040 
  328000   0.99699225    4.3376488    1.4954416    5.8330905   -0.1148267   -0.1148267        47040 
  328500   0.99376733    4.3517777    1.4906044    5.8423821  -0.11539293  -0.11539293        47040 
  329000   0.99570139    4.3355852    1.4935054    5.8290907 -0.076766218 -0.076766218        47040 
  329500   0.99275167    4.3398474     1.489081    5.8289283 -0.088910255 -0.088910255        47040 
  330000    0.9968167    4.3375463    1.4951783    5.8327246  -0.11796829  -0.11796829        47040 
  330500    1.0019481     4.344491    1.5028752    5.8473662  -0.16397607  -0.16397607        47040 
  331000    1.0034987    4.3493997    1.5052011    5.8546008   -0.1643156   -0.1643156        47040 
  331500     1.008777    4.3300495    1.5131182    5.8431677 -0.052551901 -0.052551901        47040 
  332000   0.99833791    4.3353329    1.4974601    5.8327929 -0.061374788 -0.061374788        47040 
  332500   0.99148414    4.3438307    1.4871797    5.8310104 -0.054711381 -0.054711381        47040 
  333000    1.0007318    4.3334624    1.5010507    5.8345132  -0.13416265  -0.13416265        47040 
  333500   0.99672725    4.3482256    1.4950442    5.8432697 -0.070028121 -0.070028121        47040 
  334000    1.0138562    4.3328054    1.5207367    5.8535422 -0.066126044 -0.066126044        47040 
  334500    1.0059194    4.3372288    1.5088319    5.8460607 -0.044146753 -0.044146753        47040 
  335000   0.98755482    4.3361691    1.4812859    5.8174551  -0.10831339  -0.10831339        47040 
  335500   0.98859806    4.3380919    1.4828507    5.8209426  -0.11989016  -0.11989016        47040 
  336000    1.0026855    4.3275491    1.5039813    5.8315304 -0.061024603 -0.061024603        47040 
  336500    1.0032052    4.3311967    1.5047607    5.8359574  -0.11307165  -0.11307165        47040 
  337000    1.0009566    4.3434264     1.501388    5.8448144 -0.047083424 -0.047083424        47040 
  337500    1.0078092    4.3383622    1.5116666    5.8500288 -0.070348272 -0.070348272        47040 
  338000   0.99996814    4.3471045    1.4999053    5.8470098 -0.052778797 -0.052778797        47040 
  338500     1.004395     4.345833    1.5065454    5.8523784  -0.10125272  -0.10125272        47040 
  339000    1.0013637    4.3462086    1.5019986    5.8482072  -0.09669618  -0.09669618        47040 
  339500   0.99963053    4.3384978    1.4993989    5.8378968  -0.11349326  -0.11349326        47040 
  340000   0.99911056    4.3293092     1.498619    5.8279282 -0.076158421 -0.076158421        47040 
  340500   0.99761808     4.329572    1.4963804    5.8259524  -0.11365038  -0.11365038        47040 
  341000    1.0026089    4.3197133    1.5038664    5.8235796  -0.09280138  -0.09280138        47040 
  341500    0.9998824    4.3413009    1.4997767    5.8410776 -0.079758563 -0.079758563        47040 
  342000   0.99455196    4.3440315    1.4917813    5.8358128  -0.15291492  -0.15291492        47040 
  342500   0.99483747     4.342636    1.4922096    5.8348456 -0.069168147 -0.069168147        47040 
  343000   0.99990664    4.3482979    1.4998131     5.848111  -0.13872589  -0.13872589        47040 
  343500   0.99819326    4.3602263    1.4972431    5.8574694 -0.043200868 -0.043200868        47040 
  344000   0.99868516    4.3537131    1.4979809     5.851694  -0.11320866  -0.11320866        47040 
  344500   0.99854034    4.3535087    1.4977637    5.8512724 -0.076732569 -0.076732569        47040 
  345000    1.0010347    4.3443276    1.5015051    5.8458328  -0.12827501  -0.12827501        47040 
  345500     1.000068    4.3361673    1.5000552    5.8362224 -0.093377714 -0.093377714        47040 
  346000    0.9967312    4.3394499    1.4950501       5.8345  -0.13850338  -0.13850338        47040 
  346500   0.99491793    4.3440921    1.4923303    5.8364224  -0.12076543  -0.12076543        47040 
  347000   0.99768147    4.3250684    1.4964754    5.8215438  -0.13544024  -0.13544024        47040 
  347500    1.0058851    4.3231809    1.5087805    5.8319615  -0.11423536  -0.11423536        47040 
  348000     1.008856    4.3131579    1.5132367    5.8263946  -0.10657444  -0.10657444        47040 
  348500    1.0009946    4.3390166     1.501445    5.8404616 -7.2639349e-05 -7.2639349e-05        47040 
  349000   0.99745876    4.3427903    1.4961414    5.8389317 -0.097016866 -0.097016866        47040 
  349500    1.0004493    4.3327449     1.500627     5.833372 -0.088123433 -0.088123433        47040 
  350000    1.0019977    4.3327223    1.5029496    5.8356719  -0.13209366  -0.13209366        47040 
  350500    1.0011965    4.3416331    1.5017479     5.843381  -0.11918069  -0.11918069        47040 
  351000   0.99960523    4.3567262     1.499361    5.8560872  -0.12993854  -0.12993854        47040 
  351500    1.0088596    4.3554507    1.5132421    5.8686928  -0.12104605  -0.12104605        47040 
  352000   0.99957833     4.352866    1.4993206    5.8521867 -0.083098672 -0.083098672        47040 
  352500    1.0017037    4.3571138    1.5025086    5.8596224  -0.10241357  -0.10241357        47040 
  353000    1.0016975    4.3477785    1.5024993    5.8502777  -0.09798378  -0.09798378        47040 
  353500    1.0001666    4.3401207     1.500203    5.8403237  -0.10147139  -0.10147139        47040 
  354000    1.0017054     4.346766    1.5025111    5.8492771 -0.088028573 -0.088028573        47040 
  354500    1.0028683    4.3351556    1.5042554     5.839411 -0.070168235 -0.070168235        47040 
  355000     1.004059    4.3277517    1.5060415    5.8337932  -0.13718324  -0.13718324        47040 
  355500    1.0074778     4.336563    1.5111695    5.8477325 -0.029355368 -0.029355368        47040 
  356000    1.0057387    4.3450394    1.5085609    5.8536003   -0.1373317   -0.1373317        47040 
  356500    1.0015829    4.3477919    1.5023274    5.8501193  -0.12572218  -0.12572218        47040 
  357000     1.000142    4.3535261    1.5001661    5.8536922  -0.12157813  -0.12157813        47040 
  357500    1.0092011    4.3446384    1.5137544    5.8583928  -0.13195743  -0.13195743        47040 
  358000     1.012047    4.3504382    1.5180231    5.8684613  -0.13065734  -0.13065734        47040 
  358500   0.99896931    4.3386306    1.4984071    5.8370378 -0.098331364 -0.098331364        47040 
  359000   0.99142657    4.3483669    1.4870934    5.8354603 -0.042547023 -0.042547023        47040 
  359500   0.99556559     4.335152    1.4933017    5.8284537  -0.11611648  -0.11611648        47040 
  360000    0.9911026    4.3315057    1.4866074    5.8181131  -0.11703724  -0.11703724        47040 
  360500   0.99758277    4.3469969    1.4963274    5.8433243  -0.10991075  -0.10991075        47040 
  361000    1.0054284     4.341617    1.5080955    5.8497125 -0.081327912 -0.081327912        47040 
  361500   0.99867876    4.3430178    1.4979713    5.8409891  -0.13765748  -0.13765748        47040 
  362000   0.99808221    4.3403507    1.4970765    5.8374272 -0.075474886 -0.075474886        47040 
  362500   0.99334378    4.3447929    1.4899691     5.834762 -0.077541464 -0.077541464        47040 
  363000    1.0034045    4.3241873    1.5050597     5.829247   -0.1481768   -0.1481768        47040 
  363500   0.99154622    4.3362461    1.4872729     5.823519  -0.09239791  -0.09239791        47040 
  364000   0.99370173    4.3321334     1.490506    5.8226394  -0.13214181  -0.13214181        47040 
  364500   0.99259721    4.3334659    1.4888493    5.8223152  -0.12488698  -0.12488698        47040 
  365000    1.0031877    4.3350805    1.5047345     5.839815 -0.063703417 -0.063703417        47040 
  365500    1.0049789    4.3264163    1.5074212    5.8338376 -0.073990551 -0.073990551        47040 
  366000    1.0007526    4.3252325    1.5010819    5.8263144 -0.039321777 -0.039321777        47040 
  366500    1.0000149    4.3191328    1.4999754    5.8191082 -0.096797655 -0.096797655        47040 
  367000   0.99405113    4.3049158    1.4910301    5.7959459   -0.1117567   -0.1117567        47040 
  367500   0.99808695    4.3148721    1.4970836    5.8119557 -0.021819385 -0.021819385        47040 
  368000   0.99371817    4.3260828    1.4905307    5.8166135 -0.048670453 -0.048670453        47040 
  368500    1.0031375    4.3298841    1.5046592    5.8345433 -0.086475691 -0.086475691        47040 
  369000    1.0041328    4.3241022    1.5061521    5.8302543 -0.091890771 -0.091890771        47040 
  369500   0.99923346      4.33084    1.4988034    5.8296434 -0.076720435 -0.076720435        47040 
  370000   0.99603686    4.3366723    1.4940086    5.8306809 -0.060610586 -0.060610586        47040 
  370500   0.99197011     4.336717    1.4879087    5.8246256 -0.077143052 -0.077143052        47040 
  371000   0.99509307    4.3404684     1.492593    5.8330614  -0.12507983  -0.12507983        47040 
  371500    1.0041491    4.3413533    1.5061766    5.8475299 -0.029223995 -0.029223995        47040 
  372000   0.99997987    4.3446377    1.4999229    5.8445606  -0.05071853  -0.05071853        47040 
  372500    1.0072779    4.3310269    1.5108696    5.8418965  -0.13157883  -0.13157883        47040 
  373000   0.99743889    4.3467727    1.4961116    5.8428843 -0.093281176 -0.093281176        47040 
  373500    1.0005358    4.3347441    1.5007569     5.835501 -0.059239506 -0.059239506        47040 
  374000    1.0034024    4.3367828    1.5050565    5.8418393 -0.053334744 -0.053334744        47040 
  374500    1.0026191    4.3298269    1.5038816    5.8337085 -0.034468223 -0.034468223        47040 
  375000    1.0023418    4.3395324    1.5034658    5.8429981  -0.11659916  -0.11659916        47040 
  375500    1.0014378    4.3430792    1.5021097     5.845189  -0.13371493  -0.13371493        47040 
  376000    1.0023522    4.3435762    1.5034813    5.8470575  -0.11710713  -0.11710713        47040 
  376500    1.0023765    4.3439067    1.5035177    5.8474244  -0.12629448  -0.12629448        47040 
  377000    1.0028828    4.3362563    1.5042772    5.8405335  -0.04734555  -0.04734555        47040 
  377500   0.99898984     4.332494    1.4984379     5.830932 -0.099779626 -0.099779626        47040 
  378000    1.0035011    4.3269849    1.5052046    5.8321894 -0.015901085 -0.015901085        47040 
  378500   0.99596363    4.3414864    1.4938988    5.8353852 -0.021302372 -0.021302372        47040 
  379000     1.003073    4.3343005    1.5045624    5.8388629   -0.0969171   -0.0969171        47040 
  379500    1.0015809    4.3499921    1.5023243    5.8523164 -0.069534115 -0.069534115        47040 
  380000    1.0011939    4.3451432    1.5017439    5.8468872 -0.069228609 -0.069228609        47040 
  380500   0.99830568    4.3526113    1.4974117     5.850023  -0.15810974  -0.15810974        47040 
  381000    1.0026579    4.3603351    1.5039398    5.8642749 -0.094993346 -0.094993346        47040 
  381500       1.0049    4.3529338    1.5073029    5.8602366 -0.050884759 -0.050884759        47040 
  382000    1.0003777      4.34736    1.5005197    5.8478796  -0.15741814  -0.15741814        47040 
  382500    1.0019466    4.3426401    1.5028729     5.845513  -0.11951895  -0.11951895        47040 
  383000      1.00099    4.3514533    1.5014381    5.8528914 -0.037332794 -0.037332794        47040 
  383500   0.99242608    4.3430066    1.4885926    5.8315992   -0.1578812   -0.1578812        47040 
  384000    1.0000762     4.332715    1.5000675    5.8327825  -0.15732817  -0.15732817        47040 
  384500    1.0000187     4.328418    1.4999811    5.8283991 -0.081051261 -0.081051261        47040 
  385000    0.9986062    4.3318227    1.4978625    5.8296852 -0.032907074 -0.032907074        47040 
  385500   0.99539454     4.329675    1.4930452    5.8227202  -0.10539927  -0.10539927        47040 
  386000    1.0000824    4.3321632    1.5000767      5.83224  -0.11420997  -0.11420997        47040 
  386500    1.0011745    4.3506317    1.5017148    5.8523465  -0.12639255  -0.12639255        47040 
  387000    1.0041305    4.3509095    1.5061487    5.8570582  -0.11468917  -0.11468917        47040 
  387500    1.0038465    4.3484022    1.5057227     5.854125  -0.12891294  -0.12891294        47040 
  388000    1.0043928    4.3363542    1.5065421    5.8428963 -0.098080846 -0.098080846        47040 
  388500   0.99894772    4.3409109    1.4983748    5.8392857  -0.11696866  -0.11696866        47040 
  389000   0.99351048    4.3382209    1.4902192      5.82844  -0.12058865  -0.12058865        47040 
  389500    0.9993479    4.3341876     1.498975    5.8331626  -0.14071021  -0.14071021        47040 
  390000   0.99406531     4.341844    1.4910514    5.8328953  -0.11792336  -0.11792336        47040 
  390500   0.99949111    4.3536976    1.4991898    5.8528874  -0.10859391  -0.10859391        47040 
  391000    1.0166594    4.3398734    1.5249414    5.8648148 -0.094991131 -0.094991131        47040 
  391500    1.0034346    4.3440937    1.5051049    5.8491985  -0.10190891  -0.10190891        47040 
  392000    1.0006207    4.3417726    1.5008841    5.8426568 -0.084515818 -0.084515818        47040 
  392500     1.003859    4.3317452    1.5057414    5.8374866 -0.096943832 -0.096943832        47040 
  393000    1.0027187    4.3409996    1.5040311    5.8450307 -0.098063537 -0.098063537        47040 
  393500    1.0026258    4.3411385    1.5038917    5.8450302 -0.062365036 -0.062365036        47040 
  394000    1.0023689    4.3364939    1.5035064    5.8400003   -0.1095237   -0.1095237        47040 
  394500   0.99274459    4.3482913    1.4890703    5.8373616  -0.13609713  -0.13609713        47040 
  395000    0.9981597    4.3462875    1.4971928    5.8434802  -0.16628986  -0.16628986        47040 
  395500     1.000054    4.3525585    1.5000342    5.8525927  -0.10225927  -0.10225927        47040 
  396000    1.0019126    4.3577896     1.502822    5.8606115  -0.12602988  -0.12602988        47040 
  396500   0.99880114    4.3455363    1.4981549    5.8436912  -0.11648621  -0.11648621        47040 
  397000    1.0025192    4.3406226    1.5037319    5.8443545  -0.10775656  -0.10775656        47040 
  397500   0.99872721    4.3335939     1.498044    5.8316379  -0.11059579  -0.11059579        47040 
  398000   0.99978659    4.3403999     1.499633    5.8400329 -0.067686503 -0.067686503        47040 
  398500    1.0015511    4.3335397    1.5022798    5.8358195  -0.13145161  -0.13145161        47040 
  399000    1.0072648    4.3372115      1.51085    5.8480615  -0.17296518  -0.17296518        47040 
  399500    1.0089849    4.3494629    1.5134301    5.8628929 -0.097463426 -0.097463426        47040 
  400000    1.0028057    4.3511149    1.5041615    5.8552764 -0.081825637 -0.081825637        47040 
  400500    1.0017724    4.3476116    1.5026117    5.8502232  -0.10079845  -0.10079845        47040 
  401000    1.0055494    4.3477531    1.5082769      5.85603 -0.099074842 -0.099074842        47040 
  401500   0.99664292    4.3397668    1.4949177    5.8346845 -0.051829206 -0.051829206        47040 
  402000    1.0020445    4.3387876    1.5030197    5.8418073 -0.094575655 -0.094575655        47040 
  402500    1.0018823    4.3462894    1.5027765    5.8490659   -0.1151733   -0.1151733        47040 
  403000    1.0021648    4.3434521    1.5032002    5.8466523 -0.065512385 -0.065512385        47040 
  403500   0.99356079    4.3448653    1.4902946      5.83516  -0.12814405  -0.12814405        47040 
  404000   0.99679809      4.34223    1.4951504    5.8373804 -0.078363122 -0.078363122        47040 
  404500    1.0005384     4.337218    1.5007607    5.8379787  -0.11328112  -0.11328112        47040 
  405000    1.0002235    4.3433834    1.5002884    5.8436718 -0.098876024 -0.098876024        47040 
  405500   0.99817632    4.3347758    1.4972177    5.8319935  -0.11737801  -0.11737801        47040 
  406000   0.99974211    4.3405833    1.4995663    5.8401496  -0.13723395  -0.13723395        47040 
  406500   0.99541952    4.3440991    1.4930826    5.8371817  -0.14000871  -0.14000871        47040 
  407000   0.99876704    4.3362895    1.4981037    5.8343933  -0.13997398  -0.13997398        47040 
  407500   0.99227112    4.3321519    1.4883602    5.8205121 -0.064492391 -0.064492391        47040 
  408000    1.0052183    4.3458997    1.5077803      5.85368  -0.12753585  -0.12753585        47040 
  408500   0.99864597    4.3338767    1.4979221    5.8317988  -0.11798677  -0.11798677        47040 
  409000    1.0021189    4.3384057    1.5031314    5.8415371 -0.044201746 -0.044201746        47040 
  409500   0.99746849    4.3382314     1.496156    5.8343873  -0.12532574  -0.12532574        47040 
  410000   0.99579712    4.3273853     1.493649    5.8210343 -0.091686078 -0.091686078        47040 
  410500   0.99854006    4.3233973    1.4977633    5.8211606    -0.128587    -0.128587        47040 
  411000   0.99820826    4.3163873    1.4972656    5.8136529   -0.1721406   -0.1721406        47040 
  411500   0.99789678    4.3406725    1.4967984    5.8374709 -0.081733192 -0.081733192        47040 
  412000   0.99405295    4.3417535    1.4910328    5.8327863  -0.13177594  -0.13177594        47040 
  412500   0.99645941    4.3322133    1.4946424    5.8268557  -0.13023706  -0.13023706        47040 
  413000   0.99898674    4.3363562    1.4984333    5.8347895  -0.11943726  -0.11943726        47040 
  413500    1.0023462    4.3348591    1.5034723    5.8383313 -0.070294772 -0.070294772        47040 
  414000   0.99756729    4.3518214    1.4963042    5.8481256 -0.065630838 -0.065630838        47040 
  414500    1.0032444     4.344009    1.5048196    5.8488286 -0.085492688 -0.085492688        47040 
  415000    1.0071832    4.3448968    1.5107276    5.8556245 -0.054700879 -0.054700879        47040 
  415500    1.0033393    4.3443506    1.5049618    5.8493125  -0.10531197  -0.10531197        47040 
  416000    0.9987659    4.3477997     1.498102    5.8459017  -0.18841477  -0.18841477        47040 
  416500    0.9971229    4.3403384    1.4956376     5.835976 -0.070684401 -0.070684401        47040 
  417000   0.99904236    4.3315952    1.4985167    5.8301119 -0.058443024 -0.058443024        47040 
  417500   0.99346831    4.3367562    1.4901559    5.8269121  -0.15567154  -0.15567154        47040 
  418000   0.99122637    4.3304814    1.4867931    5.8172745  -0.10343994  -0.10343994        47040 
  418500   0.99742606    4.3359322    1.4960923    5.8320245  -0.11212072  -0.11212072        47040 
  419000    1.0002652    4.3403163     1.500351    5.8406673 -0.098420595 -0.098420595        47040 
  419500    1.0039102    4.3380272    1.5058182    5.8438454 -0.078458021 -0.078458021        47040 
  420000    1.0022152    4.3428874    1.5032758    5.8461632 -0.073180837 -0.073180837        47040 
  420500     1.010765    4.3425472    1.5161001    5.8586474  -0.10595793  -0.10595793        47040 
  421000    1.0057666    4.3443942    1.5086027    5.8529969  -0.16912533  -0.16912533        47040 
  421500    1.0092175    4.3406637     1.513779    5.8544426  -0.17386038  -0.17386038        47040 
  422000   0.99957543    4.3411587    1.4993163     5.840475  -0.13933355  -0.13933355        47040 
  422500    1.0059188    4.3463322    1.5088311    5.8551633 -0.044337107 -0.044337107        47040 
  423000    1.0006794    4.3359617    1.5009722    5.8369339 -0.062328722 -0.062328722        47040 
  423500    1.0018182     4.330363    1.5026803    5.8330433 -0.049953793 -0.049953793        47040 
  424000   0.99459114    4.3374916    1.4918401    5.8293317 -0.083229903 -0.083229903        47040 
  424500    0.9958513    4.3319705    1.4937303    5.8257008  -0.13354359  -0.13354359        47040 
  425000   0.99113578    4.3364865    1.4866572    5.8231437  -0.16596364  -0.16596364        47040 
  425500   0.99244157     4.349581    1.4886158    5.8381968  -0.16705159  -0.16705159        47040 
  426000   0.99263145    4.3466462    1.4889006    5.8355468  -0.13577506  -0.13577506        47040 
  426500   0.99897158     4.338031    1.4984105    5.8364415  -0.10578035  -0.10578035        47040 
  427000    1.0009719    4.3326712    1.5014109    5.8340822  -0.17342021  -0.17342021        47040 
  427500    1.0079581    4.3328328    1.5118899    5.8447227  -0.14430401  -0.14430401        47040 
  428000    1.0003737    4.3372756    1.5005137    5.8377893  -0.11786096  -0.11786096        47040 
  428500    1.0000229    4.3406096    1.4999874     5.840597 -0.090028055 -0.090028055        47040 
  429000   0.99951748    4.3499937    1.4992294    5.8492231   -0.1291046   -0.1291046        47040 
  429500   0.99854005    4.3501469    1.4977633    5.8479102 -0.072718322 -0.072718322        47040 
  430000      1.00065    4.3383407    1.5009281    5.8392687  -0.16351266  -0.16351266        47040 
  430500   0.99412301    4.3553104    1.4911379    5.8464483 -0.091747466 -0.091747466        47040 
  431000    1.0023913    4.3542997      1.50354    5.8578397 -0.077196199 -0.077196199        47040 
  431500    1.0027673    4.3527863     1.504104    5.8568903 -0.077725022 -0.077725022        47040 
  432000    1.0028356    4.3400276    1.5042064     5.844234 -0.061988758 -0.061988758        47040 
  432500    0.9967771     4.348225    1.4951189    5.8433439  -0.11532855  -0.11532855        47040 
  433000    0.9983054     4.338868    1.4974113    5.8362793  -0.11230896  -0.11230896        47040 
  433500   0.99567294    4.3365007    1.4934627    5.8299634  -0.14020461  -0.14020461        47040 
  434000   0.99227362    4.3295874    1.4883639    5.8179513 -0.091206327 -0.091206327        47040 
  434500   0.99181267    4.3284346    1.4876725    5.8161071  -0.15033627  -0.15033627        47040 
  435000    0.9949898    4.3321177    1.4924381    5.8245558  -0.11505576  -0.11505576        47040 
  435500   0.99683299    4.3378854    1.4952028    5.8330882 -0.067928085 -0.067928085        47040 
  436000   0.99007528    4.3460884    1.4850665    5.8311549  -0.11740024  -0.11740024        47040 
  436500    1.0005939    4.3476164     1.500844    5.8484603  -0.13546368  -0.13546368        47040 
  437000    1.0077733    4.3512384    1.5116126     5.862851 -0.084006983 -0.084006983        47040 
  437500    1.0036194    4.3547105    1.5053821    5.8600925 -0.084524182 -0.084524182        47040 
  438000    1.0033227    4.3495356     1.504937    5.8544726  -0.08049475  -0.08049475        47040 
  438500    1.0024094    4.3420972    1.5035671    5.8456642 -0.061811289 -0.061811289        47040 
  439000     1.005785    4.3452271    1.5086304    5.8538574  -0.11845163  -0.11845163        47040 
  439500    1.0025489    4.3424069    1.5037763    5.8461833  -0.11079159  -0.11079159        47040 
  440000    1.0061241    4.3376932     1.509139    5.8468323  -0.11076649  -0.11076649        47040 
  440500   0.99850094    4.3328089    1.4977046    5.8305135  -0.10723315  -0.10723315        47040 
  441000   0.99292226    4.3380455    1.4893368    5.8273823 -0.081585292 -0.081585292        47040 
  441500    0.9924326      4.31948    1.4886024    5.8080824  -0.10693719  -0.10693719        47040 
  442000    1.0009848    4.3315885    1.5014303    5.8330188    -0.114609    -0.114609        47040 
  442500   0.98988488    4.3465032    1.4847809    5.8312841 -0.094105522 -0.094105522        47040 
  443000    1.0101565    4.3504462    1.5151874    5.8656336  -0.12472928  -0.12472928        47040 
  443500    1.0032108    4.3443038    1.5047691     5.849073  -0.12632204  -0.12632204        47040 
  444000   0.99980603    4.3526852    1.4996622    5.8523474  -0.10729534  -0.10729534        47040 
  444500   0.99701776     4.330414    1.4954799    5.8258939  -0.10700519  -0.10700519        47040 
  445000   0.99217535    4.3342154    1.4882165    5.8224319  -0.11019646  -0.11019646        47040 
  445500     1.000827    4.3228204    1.5011936     5.824014 -0.074845021 -0.074845021        47040 
  446000    1.0028546    4.3176229    1.5042349    5.8218578 -0.053468297 -0.053468297        47040 
  446500    1.0015662    4.3229577    1.5023023      5.82526 -0.065105291 -0.065105291        47040 
  447000   0.99406197    4.3347912    1.4910464    5.8258376 -0.019944539 -0.019944539        47040 
  447500    1.0036996    4.3330089    1.5055023    5.8385112 -0.098522822 -0.098522822        47040 
  448000    0.9956997    4.3604486    1.4935029    5.8539514 -0.096045164 -0.096045164        47040 
  448500    1.0074751    4.3511578    1.5111654    5.8623233 -0.063520078 -0.063520078        47040 
  449000    1.0074733    4.3587552    1.5111627    5.8699179  -0.13913256  -0.13913256        47040 
  449500    1.0062514    4.3563091    1.5093299    5.8656391 -0.090268866 -0.090268866        47040 
  450000    1.0061711    4.3482785    1.5092095     5.857488  -0.12295528  -0.12295528        47040 
  450500    1.0017945    4.3459393    1.5026447     5.848584  -0.11011291  -0.11011291        47040 
  451000    1.0010822     4.343924    1.5015763    5.8455003 -0.066267846 -0.066267846        47040 
  451500    1.0068426    4.3382815    1.5102167    5.8484982 -0.060717302 -0.060717302        47040 
  452000    1.0069358    4.3332466    1.5103565    5.8436032  -0.13181125  -0.13181125        47040 
  452500    0.9989421    4.3398508    1.4983663    5.8382171  -0.10299759  -0.10299759        47040 
  453000   0.99532203    4.3426007    1.4929364     5.835537  -0.18508047  -0.18508047        47040 
  453500    0.9989484    4.3458321    1.4983758    5.8442078 -0.076829931 -0.076829931        47040 
  454000     1.002785    4.3465795    1.5041304    5.8507099  -0.06333058  -0.06333058        47040 
  454500    1.0062718    4.3372374    1.5093606     5.846598  -0.14825855  -0.14825855        47040 
  455000    1.0039962    4.3450756    1.5059473    5.8510228 -0.059166073 -0.059166073        47040 
  455500    1.0034689     4.348912    1.5051563    5.8540684  -0.11100762  -0.11100762        47040 
  456000    1.0054271    4.3506243    1.5080936    5.8587179 -0.081542572 -0.081542572        47040 
  456500    1.0034839    4.3346615    1.5051788    5.8398403  -0.13937008  -0.13937008        47040 
  457000   0.99957125    4.3467269      1.49931     5.846037  -0.13459703  -0.13459703        47040 
  457500   0.99535009    4.3447909    1.4929785    5.8377693  -0.13368483  -0.13368483        47040 
  458000   0.99596202    4.3461212    1.4938963    5.8400176  -0.10209764  -0.10209764        47040 
  458500   0.99563837    4.3396984    1.4934109    5.8331093  -0.13415791  -0.13415791        47040 
  459000   0.99872548    4.3400894    1.4980414    5.8381308 -0.062301631 -0.062301631        47040 
  459500   0.99444682     4.326484    1.4916236    5.8181076 -0.086483857 -0.086483857        47040 
  460000    1.0026124    4.3328018    1.5038715    5.8366733 -0.080526416 -0.080526416        47040 
  460500    1.0039523     4.318521    1.5058814    5.8244023  -0.11227331  -0.11227331        47040 
  461000   0.99727837    4.3235493    1.4958708    5.8194201 -0.092309355 -0.092309355        47040 
  461500    1.0027979    4.3331643    1.5041499    5.8373142   -0.1051746   -0.1051746        47040 
  462000   0.99826972    4.3482629    1.4973578    5.8456207 -0.086965612 -0.086965612        47040 
  462500   0.99754293    4.3470879    1.4962676    5.8433555  -0.13645503  -0.13645503        47040 
  463000   0.99792767    4.3361436    1.4968447    5.8329884  -0.13611967  -0.13611967        47040 
  463500    1.0108223    4.3499062    1.5161861    5.8660924 -0.029865039 -0.029865039        47040 
  464000    1.0033744    4.3532766    1.5050145    5.8582912 -0.066020346 -0.066020346        47040 
  464500     1.005892    4.3418684    1.5087909    5.8506593 -0.080520123 -0.080520123        47040 
  465000    1.0004558    4.3433854    1.5006368    5.8440222 -0.079749782 -0.079749782        47040 
  465500   0.99697032    4.3461562    1.4954088     5.841565 -0.094838793 -0.094838793        47040 
  466000    1.0037122    4.3352376    1.5055212    5.8407589  -0.15223253  -0.15223253        47040 
  466500    1.0060092    4.3282838    1.5089667    5.8372505 -0.090932197 -0.090932197        47040 
  467000   0.99728947    4.3286851    1.4958875    5.8245725 -0.056791807 -0.056791807        47040 
  467500   0.99638947    4.3321427    1.4945375    5.8266802 -0.066861327 -0.066861327        47040 
  468000    1.0025582    4.3153504    1.5037903    5.8191407  -0.11362459  -0.11362459        47040 
  468500   0.99498229     4.328279    1.4924268    5.8207058 -0.019119176 -0.019119176        47040 
  469000   0.99784986    4.3231684     1.496728    5.8198965 -0.047083315 -0.047083315        47040 
  469500    1.0038688    4.3168985    1.5057561    5.8226546 -0.074044311 -0.074044311        47040 
  470000    1.0055394    4.3212273     1.508262    5.8294893 -0.079387101 -0.079387101        47040 
  470500   0.99956693    4.3416456    1.4993035    5.8409492 -0.099926934 -0.099926934        47040 
  471000     1.000651    4.3437399    1.5009296    5.8446695 -0.062675039 -0.062675039        47040 
  471500    1.0011416    4.3475189    1.5016655    5.8491843   -0.1071431   -0.1071431        47040 
  472000     1.007042    4.3478783    1.5105158    5.8583941 -0.096821463 -0.096821463        47040 
  472500    1.0068714    4.3525288    1.5102599    5.8627887 -0.081443458 -0.081443458        47040 
  473000   0.99880818    4.3604833    1.4981655    5.8586487  -0.11887365  -0.11887365        47040 
  473500    1.0018287     4.351388    1.5026961     5.854084 -0.087068993 -0.087068993        47040 
  474000     1.003333    4.3539308    1.5049525    5.8588833  -0.11065302  -0.11065302        47040 
  474500    1.0028715    4.3389308    1.5042602    5.8431911  -0.17377143  -0.17377143        47040 
  475000   0.99551368    4.3490328    1.4932239    5.8422566  -0.13520355  -0.13520355        47040 
  475500   0.99835248    4.3439507    1.4974819    5.8414326 -0.086956359 -0.086956359        47040 
  476000    1.0011617    4.3414087    1.5016955    5.8431042  -0.15497449  -0.15497449        47040 
  476500   0.99873888    4.3512016    1.4980615    5.8492631  -0.10346946  -0.10346946        47040 
  477000    1.0015887    4.3523983     1.502336    5.8547343  -0.12254842  -0.12254842        47040 
  477500   0.99900503     4.354159    1.4984607    5.8526198 -0.061677708 -0.061677708        47040 
  478000    1.0012818    4.3468925    1.5018757    5.8487682 -0.031855191 -0.031855191        47040 
  478500   0.99911851    4.3281587    1.4986309    5.8267897  -0.10426939  -0.10426939        47040 
  479000   0.99353004    4.3295494    1.4902485    5.8197979  -0.08736484  -0.08736484        47040 
  479500   0.99461741    4.3469247    1.4918795    5.8388042 -0.062276501 -0.062276501        47040 
  480000   0.99133248    4.3551248    1.4869523     5.842077  -0.13051635  -0.13051635        47040 
  480500   0.99443652    4.3478506    1.4916082    5.8394588  -0.13724178  -0.13724178        47040 
  481000   0.99608705    4.3493664    1.4940839    5.8434502  -0.10190135  -0.10190135        47040 
  481500    0.9989158    4.3518295    1.4983269    5.8501564  -0.11532719  -0.11532719        47040 
  482000    1.0015938    4.3505139    1.5023437    5.8528576 -0.076734113 -0.076734113        47040 
  482500    1.0019808    4.3277722    1.5029242    5.8306964 -0.077298713 -0.077298713        47040 
  483000   0.99846679    4.3371476    1.4976534     5.834801 -0.067281802 -0.067281802        47040 
  483500    1.0029998    4.3460205    1.5044527    5.8504732 -0.0078137214 -0.0078137214        47040 
  484000    1.0016966    4.3483417     1.502498    5.8508397 -0.069870261 -0.069870261        47040 
  484500    1.0036537    4.3366874    1.5054335    5.8421209 -0.066224633 -0.066224633        47040 
  485000   0.99867447    4.3515884    1.4979649    5.8495533 -0.096492531 -0.096492531        47040 
  485500   0.99344016    4.3313589    1.4901137    5.8214726  -0.17548561  -0.17548561        47040 
  486000    1.0049884    4.3525278    1.5074355    5.8599633  -0.10743629  -0.10743629        47040 
  486500    1.0048326    4.3415185    1.5072018    5.8487203  -0.12974192  -0.12974192        47040 
  487000    1.0002007    4.3413935    1.5002541    5.8416477 -0.089941741 -0.089941741        47040 
  487500    1.0164015    4.3139585    1.5245546    5.8385132  -0.10632704  -0.10632704        47040 
  488000    1.0019479    4.3337321    1.5028749     5.836607 -0.047465944 -0.047465944        47040 
  488500    1.0055682    4.3333536    1.5083051    5.8416587 -0.070729103 -0.070729103        47040 
  489000    1.0035031     4.337191    1.5052077    5.8423987   -0.1128023   -0.1128023        47040 
  489500   0.99732055    4.3307071    1.4959341    5.8266412  -0.10435996  -0.10435996        47040 
  490000   0.99849606    4.3256479    1.4976973    5.8233451 -0.053297039 -0.053297039        47040 
  490500    1.0031272    4.3247733    1.5046439    5.8294171 -0.093433505 -0.093433505        47040 
  491000    1.0010864    4.3250581    1.5015827    5.8266408 -0.029130237 -0.029130237        47040 
  491500    1.0018162    4.3177584    1.5026774    5.8204358 0.00075028879 0.00075028879        47040 
  492000   0.99991304    4.3288722    1.4998227    5.8286948  -0.10122298  -0.10122298        47040 
  492500     1.007894    4.3301196    1.5117938    5.8419134   -0.1273999   -0.1273999        47040 
  493000    1.0035958    4.3251798    1.5053466    5.8305264  -0.15050803  -0.15050803        47040 
  493500   0.99907296    4.3457333    1.4985626    5.8442959  -0.16196223  -0.16196223        47040 
  494000   0.99598853    4.3525495    1.4939361    5.8464856  -0.17146623  -0.17146623        47040 
  494500   0.99660115     4.359345     1.494855       5.8542   -0.1187511   -0.1187511        47040 
  495000   0.99356617    4.3484648    1.4903027    5.8387675  -0.14643324  -0.14643324        47040 
  495500   0.99726326    4.3463889    1.4958481    5.8422371 -0.086313811 -0.086313811        47040 
  496000    1.0007023    4.3360591    1.5010066    5.8370656 -0.076811632 -0.076811632        47040 
  496500   0.99728592    4.3323717    1.4958821    5.8282539 -0.067717805 -0.067717805        47040 
  497000   0.98975352    4.3401555    1.4845839    5.8247394  -0.09621506  -0.09621506        47040 
  497500   0.98953934    4.3359204    1.4842626     5.820183 -0.094436273 -0.094436273        47040 
  498000   0.99965701    4.3469286    1.4994387    5.8463673 -0.087006201 -0.087006201        47040 
  498500   0.99675121    4.3428867    1.4950801    5.8379668 -0.086478155 -0.086478155        47040 
  499000   0.99244264    4.3343966    1.4886174     5.823014 -0.064434025 -0.064434025        47040 
  499500    1.0042968    4.3258915    1.5063981    5.8322896 -0.075964593 -0.075964593        47040 
  500000    1.0066268    4.3334483     1.509893    5.8433413 -0.081531737 -0.081531737        47040 
  500500    1.0052447    4.3415882    1.5078199    5.8494081 -0.098958337 -0.098958337        47040 
  501000    1.0034771     4.340782    1.5051686    5.8459507 -0.051613172 -0.051613172        47040 
  501500      1.00453    4.3383172    1.5067479    5.8450651 -0.081851117 -0.081851117        47040 
  502000   0.99434085    4.3361737    1.4914647    5.8276384  -0.11598629  -0.11598629        47040 
  502500    0.9932729    4.3397439    1.4898628    5.8296067  -0.13244295  -0.13244295        47040 
  503000    1.0025416     4.340129    1.5037654    5.8438944  -0.14102485  -0.14102485        47040 
  503500     1.000904    4.3318836    1.5013091    5.8331926  -0.10702143  -0.10702143        47040 
  504000   0.99156324     4.342362    1.4872984    5.8296604 -0.070308114 -0.070308114        47040 
  504500    1.0040883    4.3459312    1.5060855    5.8520166  -0.11649892  -0.11649892        47040 
  505000    1.0032125    4.3504046    1.5047717    5.8551763  -0.11730781  -0.11730781        47040 
  505500    1.0018259    4.3513431    1.5026918    5.8540349   -0.2002173   -0.2002173        47040 
  506000     0.994955    4.3542277    1.4923859    5.8466135 -0.057793326 -0.057793326        47040 
  506500    0.9990973    4.3363004    1.4985991    5.8348996 -0.084480784 -0.084480784        47040 
  507000   0.99923524    4.3317513     1.498806    5.8305574 -0.023428851 -0.023428851        47040 
  507500   0.99679294    4.3290523    1.4951427     5.824195  -0.10626471  -0.10626471        47040 
  508000   0.99213103     4.323066      1.48815     5.811216  -0.11479905  -0.11479905        47040 
  508500    1.0030642    4.3432726    1.5045493    5.8478218  -0.07428385  -0.07428385        47040 
  509000    1.0015295     4.347727    1.5022473    5.8499743  -0.14547356  -0.14547356        47040 
  509500    1.0027968    4.3456009    1.5041482    5.8497491   -0.1336922   -0.1336922        47040 
  510000    0.9939773    4.3510521    1.4909194    5.8419715  -0.12115456  -0.12115456        47040 
  510500   0.99640209    4.3452056    1.4945564     5.839762  -0.14651926  -0.14651926        47040 
  511000   0.99904469     4.351311    1.4985202    5.8498312 -0.054019292 -0.054019292        47040 
  511500   0.99401399    4.3460998    1.4909744    5.8370742  -0.16855575  -0.16855575        47040 
  512000   0.99623844    4.3380956     1.494311    5.8324066 -0.084961121 -0.084961121        47040 
  512500    1.0017442      4.32814    1.5025694    5.8307093 -0.081102064 -0.081102064        47040 
  513000   0.99718442    4.3311886    1.4957299    5.8269185 -0.080499207 -0.080499207        47040 
  513500    1.0064081    4.3301379     1.509565    5.8397029 -0.090443231 -0.090443231        47040 
  514000   0.99835543    4.3365134    1.4974863    5.8339997 -0.045926882 -0.045926882        47040 
  514500    1.0018594    4.3325621    1.5027421    5.8353042 -0.092593711 -0.092593711        47040 
  515000    1.0018644    4.3431457    1.5027497    5.8458954 -0.062544352 -0.062544352        47040 
  515500    1.0085562    4.3298336    1.5127871    5.8426207  -0.12353091  -0.12353091        47040 
  516000    1.0053351     4.340548    1.5079555    5.8485035 -0.071534077 -0.071534077        47040 
  516500    1.0096069    4.3379096    1.5143631    5.8522727  -0.10647676  -0.10647676        47040 
  517000    1.0129231    4.3456238    1.5193372    5.8649609  -0.10708672  -0.10708672        47040 
  517500    1.0056935    4.3400626    1.5084931    5.8485558  -0.20599972  -0.20599972        47040 
  518000   0.99921711    4.3392095    1.4987788    5.8379883 -0.083228398 -0.083228398        47040 
  518500   0.99804657    4.3409938    1.4970231    5.8380169  -0.10788497  -0.10788497        47040 
  519000   0.99950248    4.3497405    1.4992069    5.8489474  -0.10947955  -0.10947955        47040 
  519500   0.99704525    4.3567455    1.4955211    5.8522666  -0.10316744  -0.10316744        47040 
  520000    1.0022651    4.3429435    1.5033507    5.8462941  -0.10067955  -0.10067955        47040 
  520500   0.99589654    4.3321678    1.4937981     5.825966  -0.21367716  -0.21367716        47040 
  521000    1.0001252    4.3342281    1.5001409     5.834369 -0.073537274 -0.073537274        47040 
  521500   0.99527275    4.3491378    1.4928625    5.8420003  -0.11849906  -0.11849906        47040 
  522000    1.0009497    4.3481884    1.5013777    5.8495661 -0.088542527 -0.088542527        47040 
  522500    1.0026708    4.3488388    1.5039593    5.8527981  -0.12188833  -0.12188833        47040 
  523000   0.99936982     4.343841    1.4990079    5.8428489  -0.14019544  -0.14019544        47040 
  523500    1.0005759     4.341753    1.5008169    5.8425699  -0.11082054  -0.11082054        47040 
  524000    1.0089837    4.3423487    1.5134283     5.855777 -0.060267949 -0.060267949        47040 
  524500    1.0016846     4.325779    1.5024799    5.8282589  -0.13652417  -0.13652417        47040 
  525000   0.99567485    4.3353078    1.4934656    5.8287734 -0.052690271 -0.052690271        47040 
  525500   0.99879832    4.3275047    1.4981507    5.8256554 -0.089714164 -0.089714164        47040 
  526000   0.98984388    4.3316941    1.4847194    5.8164136  -0.10760703  -0.10760703        47040 
  526500   0.99629047      4.32458     1.494389     5.818969  -0.10131641  -0.10131641        47040 
  527000   0.99319673    4.3393338    1.4897485    5.8290824  -0.10740652  -0.10740652        47040 
  527500    0.9971029    4.3441047    1.4956076    5.8397123  -0.11238902  -0.11238902        47040 
  528000   0.99988704    4.3476013    1.4997837     5.847385 -0.048721651 -0.048721651        47040 
  528500   0.99133487    4.3500336    1.4869558    5.8369894 -0.054556539 -0.054556539        47040 
  529000    0.9987354    4.3394785    1.4980563    5.8375348 -0.096972723 -0.096972723        47040 
  529500   0.99218332    4.3323376    1.4882285    5.8205661  -0.12606567  -0.12606567        47040 
  530000   0.99443697    4.3346569    1.4916088    5.8262658  -0.12124205  -0.12124205        47040 
  530500    0.9962609    4.3432888    1.4943447    5.8376335  -0.10872373  -0.10872373        47040 
  531000   0.99890452     4.349769    1.4983099     5.848079  -0.09784928  -0.09784928        47040 
  531500     1.002629    4.3368267    1.5038964    5.8407231 -0.085745609 -0.085745609        47040 
  532000   0.99651879    4.3554827    1.4947315    5.8502141 -0.055432465 -0.055432465        47040 
  532500   0.99850209     4.335653    1.4977063    5.8333593 -0.089467083 -0.089467083        47040 
  533000   0.99452549    4.3420541    1.4917416    5.8337957  -0.10879742  -0.10879742        47040 
  533500     0.991044    4.3392987    1.4865196    5.8258183  -0.17881118  -0.17881118        47040 
  534000    1.0012506    4.3483807     1.501829    5.8502097 -0.094963107 -0.094963107        47040 
  534500   0.99758427    4.3624583    1.4963296    5.8587879  -0.14083888  -0.14083888        47040 
  535000   0.99770816     4.361441    1.4965155    5.8579565  -0.13829531  -0.13829531        47040 
  535500    1.0015965    4.3575634    1.5023478    5.8599112 -0.083225211 -0.083225211        47040 
  536000    1.0076464    4.3504208    1.5114223    5.8618431  -0.12826393  -0.12826393        47040 
  536500    1.0004914    4.3451109    1.5006902    5.8458011 -0.086798196 -0.086798196        47040 
  537000   0.99816786    4.3437708     1.497205    5.8409758  -0.04222934  -0.04222934        47040 
  537500   0.99180076     4.346105    1.4876546    5.8337597  -0.10333035  -0.10333035        47040 
  538000    1.0035551    4.3389691    1.5052856    5.8442548  -0.12768662  -0.12768662        47040 
  538500   0.99873329    4.3399446    1.4980531    5.8379977 -0.079334233 -0.079334233        47040 
  539000   0.99251637     4.345656     1.488728     5.834384  -0.14356553  -0.14356553        47040 
  539500    1.0025679    4.3567748    1.5038048    5.8605796 -0.097962136 -0.097962136        47040 
  540000   0.99923116    4.3610007    1.4987999    5.8598006  -0.12846098  -0.12846098        47040 
  540500   0.99802475    4.3551996    1.4969903    5.8521899  -0.10947061  -0.10947061        47040 
  541000    1.0016301    4.3541936    1.5023983    5.8565919 -0.091696838 -0.091696838        47040 
  541500    0.9991249     4.352713    1.4986405    5.8513535  -0.16544209  -0.16544209        47040 
  542000   0.99606107     4.362134    1.4940449     5.856179 -0.070081078 -0.070081078        47040 
  542500    1.0055978    4.3481328    1.5083495    5.8564824  -0.11352354  -0.11352354        47040 
  543000    0.9972452    4.3510366    1.4958211    5.8468577 -0.077211754 -0.077211754        47040 
  543500    1.0002998     4.342439    1.5004028    5.8428418  -0.14474129  -0.14474129        47040 
  544000   0.99857186    4.3372603     1.497811    5.8350712  -0.12746722  -0.12746722        47040 
  544500   0.99797028    4.3313509    1.4969086    5.8282596 -0.035682419 -0.035682419        47040 
  545000   0.99525957    4.3243573    1.4928427       5.8172  -0.10808344  -0.10808344        47040 
  545500   0.99751415    4.3391084    1.4962245    5.8353329  -0.10724553  -0.10724553        47040 
  546000   0.99568598    4.3381674    1.4934823    5.8316497  -0.11002351  -0.11002351        47040 
  546500   0.99824198    4.3275036    1.4973162    5.8248198 -0.045200298 -0.045200298        47040 
  547000   0.99828617    4.3228923    1.4973825    5.8202747  -0.12130125  -0.12130125        47040 
  547500   0.99224422    4.3304918    1.4883198    5.8188116  -0.12947522  -0.12947522        47040 
  548000    1.0032301     4.334897    1.5047982    5.8396952  -0.11573611  -0.11573611        47040 
  548500     1.002566    4.3259673    1.5038019    5.8297692 -0.077752377 -0.077752377        47040 
  549000    1.0089813    4.3224449    1.5134246    5.8358695  -0.11633141  -0.11633141        47040 
  549500    1.0035326    4.3327066    1.5052519    5.8379585 -0.055203533 -0.055203533        47040 
  550000    1.0030558    4.3250795    1.5045366    5.8296161    -0.085388    -0.085388        47040 
  550500   0.99473229    4.3221146    1.4920518    5.8141664 -0.059155997 -0.059155997        47040 
  551000   0.99396991    4.3405919    1.4909083    5.8315002  -0.08842417  -0.08842417        47040 
  551500   0.99539715    4.3416322    1.4930491    5.8346813  -0.10683238  -0.10683238        47040 
  552000   0.99567056    4.3529258    1.4934592     5.846385 -0.085877352 -0.085877352        47040 
  552500   0.99937342    4.3463991    1.4990133    5.8454124  -0.11681851  -0.11681851        47040 
  553000    1.0040672    4.3443162    1.5060537    5.8503699  -0.10275472  -0.10275472        47040 
  553500   0.99731111    4.3559049    1.4959199    5.8518248  -0.10270586  -0.10270586        47040 
  554000   0.99597195    4.3406594    1.4939112    5.8345707 -0.096150996 -0.096150996        47040 
  554500   0.99742827    4.3357774    1.4960956     5.831873 -0.094957467 -0.094957467        47040 
  555000    0.9959318    4.3228662     1.493851    5.8167172  -0.11478756  -0.11478756        47040 
  555500   0.98712823    4.3242243    1.4806461    5.8048704 -0.092025476 -0.092025476        47040 
  556000    1.0016192    4.3306645    1.5023819    5.8330464 -0.073025394 -0.073025394        47040 
  556500     1.003047     4.322442    1.5045234    5.8269654 -0.078329795 -0.078329795        47040 
  557000     1.005752    4.3227101    1.5085809     5.831291  -0.11827395  -0.11827395        47040 
  557500   0.99542282    4.3366771    1.4930876    5.8297646  -0.12384306  -0.12384306        47040 
  558000    1.0008923    4.3361344    1.5012915    5.8374259  -0.11936981  -0.11936981        47040 
  558500   0.99896597    4.3410191    1.4984021    5.8394212  -0.15531235  -0.15531235        47040 
  559000   0.99329033    4.3349957    1.4898889    5.8248847   -0.1322339   -0.1322339        47040 
  559500    0.9928452     4.340093    1.4892213    5.8293143  -0.08924094  -0.08924094        47040 
  560000    1.0008585    4.3480962    1.5012408    5.8493371 -0.063451862 -0.063451862        47040 
  560500    1.0078343    4.3478471    1.5117042    5.8595513 -0.073492432 -0.073492432        47040 
  561000   0.99891528    4.3538526    1.4983261    5.8521787  -0.11752403  -0.11752403        47040 
  561500    1.0052892    4.3417888    1.5078866    5.8496754 -0.076568007 -0.076568007        47040 
  562000    1.0085451    4.3446775    1.5127704    5.8574479  -0.10290825  -0.10290825        47040 
  562500    1.0055025    4.3582719    1.5082066    5.8664785  -0.11111027  -0.11111027        47040 
  563000   0.99857041    4.3433797    1.4978088    5.8411885 -0.085846042 -0.085846042        47040 
  563500   0.99412855     4.339467    1.4911462    5.8306132  -0.16311313  -0.16311313        47040 
  564000   0.99225682    4.3499373    1.4883387     5.838276 -0.072934056 -0.072934056        47040 
  564500    1.0035204    4.3452218    1.5052335    5.8504554  -0.11896669  -0.11896669        47040 
  565000    1.0032638    4.3374864    1.5048487    5.8423351    -0.148501    -0.148501        47040 
  565500   0.99756865     4.342298    1.4963062    5.8386042 -0.069047196 -0.069047196        47040 
  566000   0.99508229    4.3427992    1.4925768     5.835376 -0.061398907 -0.061398907        47040 
  566500   0.99580535    4.3488412    1.4936613    5.8425026  -0.10320544  -0.10320544        47040 
  567000    1.0121886    4.3445216    1.5182354     5.862757 -0.019111765 -0.019111765        47040 
  567500    1.0030005    4.3390835    1.5044538    5.8435373 -0.074103505 -0.074103505        47040 
  568000    1.0048792    4.3350183    1.5072716    5.8422899  -0.12639336  -0.12639336        47040 
  568500    1.0041815    4.3342776    1.5062252    5.8405028 -0.078002873 -0.078002873        47040 
  569000    1.0009827    4.3280806    1.5014271    5.8295077  -0.11490211  -0.11490211        47040 
  569500    1.0023694    4.3238949    1.5035071     5.827402  -0.12657519  -0.12657519        47040 
  570000   0.99377419    4.3292061    1.4906147    5.8198208 -0.095940686 -0.095940686        47040 
  570500   0.99352797    4.3386155    1.4902454    5.8288609  -0.11315695  -0.11315695        47040 
  571000   0.99823813    4.3400478    1.4973104    5.8373582  -0.17457655  -0.17457655        47040 
  571500   0.99479084    4.3421713    1.4921396    5.8343109 -0.065307398 -0.065307398        47040 
  572000   0.99764196     4.335023    1.4964162    5.8314392  -0.12674734  -0.12674734        47040 
  572500   0.99890956    4.3322943    1.4983175    5.8306119  -0.10996457  -0.10996457        47040 
  573000    1.0038216    4.3280577    1.5056854    5.8337431 -0.040124778 -0.040124778        47040 
  573500    1.0007332    4.3372594    1.5010529    5.8383122 -0.057779268 -0.057779268        47040 
  574000    1.0069881    4.3426891     1.510435     5.853124 -0.067395803 -0.067395803        47040 
  574500    1.0064384    4.3411596    1.5096104    5.8507699 -0.039345323 -0.039345323        47040 
  575000    1.0047215    4.3427457    1.5070352    5.8497809 -0.083752462 -0.083752462        47040 
  575500   0.99508215     4.323932    1.4925766    5.8165086 -0.069988248 -0.069988248        47040 
  576000    1.0021481    4.3376081    1.5031751    5.8407833  -0.14097021  -0.14097021        47040 
  576500    0.9982252    4.3410596     1.497291    5.8383506  -0.10651755  -0.10651755        47040 
  577000   0.99631243    4.3338772    1.4944219    5.8282992  -0.16897953  -0.16897953        47040 
  577500   0.98901582    4.3319942    1.4834774    5.8154716  -0.04664633  -0.04664633        47040 
  578000     1.006023    4.3266347    1.5089874    5.8356221 -0.043009763 -0.043009763        47040 
  578500   0.99760379    4.3357903    1.4963589    5.8321493  -0.12030583  -0.12030583        47040 
  579000   0.99761243    4.3249282    1.4963719    5.8213001 -0.080047608 -0.080047608        47040 
  579500   0.99497882    4.3291552    1.4924216    5.8215768  -0.15043782  -0.15043782        47040 
  580000    1.0034172     4.350326    1.5050787    5.8554047  -0.10119418  -0.10119418        47040 
  580500    1.0034108    4.3468324    1.5050691    5.8519015 -0.095255032 -0.095255032        47040 
  581000    1.0007785    4.3539295    1.5011208    5.8550503  -0.11440061  -0.11440061        47040 
  581500   0.99681935    4.3486685    1.4951823    5.8438508  -0.12267487  -0.12267487        47040 
  582000   0.99355078    4.3354383    1.4902796    5.8257179   -0.1333661   -0.1333661        47040 
  582500    0.9955574    4.3404195    1.4932894    5.8337089 -0.042902157 -0.042902157        47040 
  583000   0.99481947    4.3363515    1.4921826    5.8285341 -0.095398747 -0.095398747        47040 
  583500   0.99867668    4.3288855    1.4979682    5.8268537  -0.13775321  -0.13775321        47040 
  584000    1.0005305    4.3204772    1.5007489    5.8212261  -0.11917077  -0.11917077        47040 
  584500   0.99248997     4.328708    1.4886884    5.8173964  -0.12182865  -0.12182865        47040 
  585000   0.99718209    4.3155099    1.4957264    5.8112363 -0.083731762 -0.083731762        47040 
  585500   0.99315763    4.3321969    1.4896899    5.8218868 -0.095712362 -0.095712362        47040 
  586000   0.99854298    4.3285844    1.4977677     5.826352  -0.12890291  -0.12890291        47040 
  586500   0.99507001    4.3373715    1.4925584    5.8299299  -0.12128634  -0.12128634        47040 
  587000   0.99131681    4.3439335    1.4869287    5.8308623 -0.083898699 -0.083898699        47040 
  587500   0.99677775    4.3407166    1.4951199    5.8358365  -0.10613636  -0.10613636        47040 
  588000   0.99990421     4.331843    1.4998094    5.8316524 -0.063959092 -0.063959092        47040 
  588500    1.0047033    4.3418883    1.5070078    5.8488962 -0.071788221 -0.071788221        47040 
  589000    1.0032871    4.3426664    1.5048836    5.8475499 -0.014512489 -0.014512489        47040 
  589500    1.0047966     4.336078    1.5071479    5.8432259 -0.086730957 -0.086730957        47040 
  590000     1.003912    4.3455428    1.5058209    5.8513637  -0.13851563  -0.13851563        47040 
  590500    1.0079996    4.3399597    1.5119522    5.8519119  -0.09293737  -0.09293737        47040 
  591000   0.99140453    4.3424345    1.4870603    5.8294948 -0.088021264 -0.088021264        47040 
  591500    1.0031488    4.3179667    1.5046762     5.822643 -0.090272782 -0.090272782        47040 
  592000   0.99741371    4.3296045    1.4960738    5.8256783  -0.11419166  -0.11419166        47040 
  592500   0.99649172    4.3328172    1.4946909    5.8275081  -0.12782485  -0.12782485        47040 
  593000     1.003053    4.3404235    1.5045326    5.8449561 -0.078720013 -0.078720013        47040 
  593500   0.99983436     4.351956    1.4997047    5.8516607 -0.096455369 -0.096455369        47040 
  594000    1.0010959    4.3454415     1.501597    5.8470384  -0.13562742  -0.13562742        47040 
  594500   0.99725033    4.3477107    1.4958287    5.8435395  -0.10328056  -0.10328056        47040 
  595000    1.0083288    4.3427027     1.512446    5.8551487  -0.10442905  -0.10442905        47040 
  595500    1.0057041    4.3456298     1.508509    5.8541389 -0.013475147 -0.013475147        47040 
  596000    1.0046904    4.3392756    1.5069886    5.8462642 -0.095903552 -0.095903552        47040 
  596500    1.0015243    4.3372558    1.5022394    5.8394952 -0.071137171 -0.071137171        47040 
  597000   0.99468071     4.346441    1.4919744    5.8384155  -0.12817159  -0.12817159        47040 
  597500   0.99905487    4.3526716    1.4985355    5.8512071  -0.11085601  -0.11085601        47040 
  598000     1.006813    4.3466163    1.5101722    5.8567885 -0.093568277 -0.093568277        47040 
  598500   0.99963233    4.3478468    1.4994016    5.8472485 -0.056872795 -0.056872795        47040 
  599000    1.0019139     4.335189    1.5028239    5.8380129  -0.14192004  -0.14192004        47040 
  599500   0.99118993    4.3317858    1.4867384    5.8185243  -0.10328527  -0.10328527        47040 
  600000     1.001108    4.3278502     1.501615    5.8294652  -0.11700055  -0.11700055        47040 
  600500   0.99294044    4.3408045    1.4893641    5.8301686  -0.16332563  -0.16332563        47040 
  601000    1.0018674    4.3516543    1.5027542    5.8544085 -0.049977259 -0.049977259        47040 
  601500    1.0070222    4.3441684    1.5104861    5.8546545  -0.11568012  -0.11568012        47040 
  602000    1.0091284    4.3573576    1.5136453    5.8710029 -0.096327087 -0.096327087        47040 
  602500   0.99879998     4.342571    1.4981532    5.8407241 -0.085568417 -0.085568417        47040 
  603000   0.99820782    4.3488191    1.4972649     5.846084  -0.14553382  -0.14553382        47040 
  603500   0.99874724    4.3616334     1.498074    5.8597074 -0.030323543 -0.030323543        47040 
  604000    1.0008957    4.3583812    1.5012966    5.8596778  -0.10754469  -0.10754469        47040 
  604500    1.0028266    4.3489777     1.504193    5.8531707 -0.097661018 -0.097661018        47040 
  605000    1.0057036    4.3510143    1.5085083    5.8595226 -0.082916656 -0.082916656        47040 
  605500    1.0023576    4.3544537    1.5034894    5.8579431  -0.22151322  -0.22151322        47040 
  606000   0.99923589    4.3598317     1.498807    5.8586387  -0.16452891  -0.16452891        47040 
  606500    0.9991841    4.3505692    1.4987293    5.8492985  -0.07646396  -0.07646396        47040 
  607000    1.0004636    4.3449323    1.5006485    5.8455808  -0.10110932  -0.10110932        47040 
  607500   0.99937909    4.3363356    1.4990218    5.8353574 -0.077887562 -0.077887562        47040 
  608000   0.99801633    4.3242133    1.4969777     5.821191 -0.092597936 -0.092597936        47040 
  608500   0.99948937    4.3309146    1.4991872    5.8301018 -0.017952369 -0.017952369        47040 
  609000    1.0028202    4.3418448    1.5041833    5.8460281 -0.058996921 -0.058996921        47040 
  609500   0.99540865    4.3491624    1.4930663    5.8422287 -0.070681358 -0.070681358        47040 
  610000   0.99588677    4.3421582    1.4937835    5.8359416 -0.097606327 -0.097606327        47040 
  610500    1.0023157    4.3363329    1.5034265    5.8397595   -0.1890555   -0.1890555        47040 
  611000   0.99193216    4.3457076    1.4878517    5.8335593    -0.146718    -0.146718        47040 
  611500    0.9876365    4.3483595    1.4814085    5.8297679  -0.16303464  -0.16303464        47040 
  612000    1.0022255    4.3420928    1.5032913    5.8453841  -0.18335704  -0.18335704        47040 
  612500   0.99571073    4.3479503    1.4935194    5.8414698  -0.12170342  -0.12170342        47040 
  613000    1.0022881    4.3553541    1.5033852    5.8587394 -0.088430166 -0.088430166        47040 
  613500   0.99963058    4.3420129     1.499399    5.8414119  -0.12643449  -0.12643449        47040 
  614000   0.99651682    4.3573083    1.4947285    5.8520368  -0.09902613  -0.09902613        47040 
  614500   0.99766726    4.3545946    1.4964541    5.8510487 -0.089213345 -0.089213345        47040 
  615000   0.99905634    4.3558248    1.4985377    5.8543625 -0.099487374 -0.099487374        47040 
  615500    1.0034759    4.3577597    1.5051668    5.8629265 -0.088782641 -0.088782641        47040 
  616000   0.99947901    4.3586188    1.4991717    5.8577905  -0.10691705  -0.10691705        47040 
  616500   0.99821558    4.3472248    1.4972766    5.8445014  -0.10514682  -0.10514682        47040 
  617000   0.99946603    4.3380134    1.4991522    5.8371656  -0.09439035  -0.09439035        47040 
  617500       1.0063    4.3397114    1.5094028    5.8491142  -0.10835273  -0.10835273        47040 
  618000    1.0099071    4.3352668    1.5148133    5.8500801  -0.10636228  -0.10636228        47040 
  618500    1.0076139    4.3295126    1.5113736    5.8408862 -0.094421503 -0.094421503        47040 
  619000    1.0033637    4.3247301    1.5049986    5.8297287  -0.12403082  -0.12403082        47040 
  619500    1.0048955    4.3323368    1.5072962    5.8396331 -0.099605782 -0.099605782        47040 
  620000    1.0034209    4.3386264    1.5050844    5.8437108  -0.06090203  -0.06090203        47040 
  620500   0.99847371    4.3461815    1.4976638    5.8438453 -0.089659139 -0.089659139        47040 
  621000    1.0005305    4.3490724    1.5007488    5.8498212 -0.044101569 -0.044101569        47040 
  621500   0.99909605    4.3463571    1.4985972    5.8449543  -0.11056443  -0.11056443        47040 
  622000   0.99731775    4.3489224    1.4959299    5.8448523 -0.092763157 -0.092763157        47040 
  622500   0.98831845    4.3331534    1.4824313    5.8155847  -0.13349458  -0.13349458        47040 
  623000   0.99732757     4.327433    1.4959446    5.8233776  -0.13609257  -0.13609257        47040 
  623500    1.0015736    4.3257465    1.5023134    5.8280599 -0.074896472 -0.074896472        47040 
  624000    1.0058393    4.3304479    1.5087118    5.8391597 -0.050618471 -0.050618471        47040 
  624500    1.0047509     4.339833    1.5070792    5.8469122 -0.056054466 -0.056054466        47040 
  625000    1.0049994    4.3399045     1.507452    5.8473565 -0.081365424 -0.081365424        47040 
  625500   0.99854435     4.337581    1.4977697    5.8353507  -0.10401603  -0.10401603        47040 
  626000   0.99775748    4.3502207    1.4965895    5.8468101  -0.11658091  -0.11658091        47040 
  626500    0.9993474    4.3580816    1.4989743    5.8570559  -0.14397826  -0.14397826        47040 
  627000    1.0058251    4.3585134    1.5086905    5.8672038  -0.12615975  -0.12615975        47040 
  627500      1.00551    4.3576646    1.5082179    5.8658825 -0.099869705 -0.099869705        47040 
  628000    1.0098932    4.3525638    1.5147925    5.8673563 -0.047340941 -0.047340941        47040 
  628500    1.0076985    4.3492817    1.5115005    5.8607822  -0.11750586  -0.11750586        47040 
  629000   0.99768373    4.3587026    1.4964788    5.8551814  -0.16183831  -0.16183831        47040 
  629500   0.99301059    4.3506498    1.4894693    5.8401191  -0.12993103  -0.12993103        47040 
  630000   0.99273694    4.3542318    1.4890589    5.8432907 -0.086152116 -0.086152116        47040 
  630500    1.0008689    4.3511539    1.5012564    5.8524103  -0.11724034  -0.11724034        47040 
  631000   0.99870294    4.3545676    1.4980076    5.8525752  -0.16144919  -0.16144919        47040 
  631500    1.0038528    4.3491202    1.5057322    5.8548524  -0.18760526  -0.18760526        47040 
  632000   0.99644865     4.361448    1.4946263    5.8560743  -0.13479498  -0.13479498        47040 
  632500   0.99620028    4.3457006    1.4942537    5.8399544 -0.077236961 -0.077236961        47040 
  633000    1.0028183    4.3304338    1.5041804    5.8346142 -0.089576462 -0.089576462        47040 
  633500    1.0014898    4.3345546    1.5021877    5.8367424 -0.062642568 -0.062642568        47040 
  634000   0.99904719    4.3381499     1.498524    5.8366738 -0.055961429 -0.055961429        47040 
  634500    1.0038749     4.335152    1.5057653    5.8409173  -0.12614252  -0.12614252        47040 
  635000    1.0033507    4.3320187    1.5049791    5.8369977 -0.062617464 -0.062617464        47040 
  635500    1.0047934    4.3369811    1.5071431    5.8441242  -0.11624042  -0.11624042        47040 
  636000   0.99980516    4.3431068    1.4996609    5.8427677 -0.066961752 -0.066961752        47040 
  636500    1.0059761    4.3408981     1.508917     5.849815 -0.092938992 -0.092938992        47040 
  637000    1.0016223    4.3378684    1.5023864    5.8402548  -0.11819798  -0.11819798        47040 
  637500   0.99698118    4.3415735     1.495425    5.8369985  -0.11261196  -0.11261196        47040 
  638000   0.99784169    4.3430971    1.4967158    5.8398129  -0.11292168  -0.11292168        47040 
  638500    0.9936911      4.33578    1.4904901      5.82627  -0.13996783  -0.13996783        47040 
  639000   0.99502262    4.3364539    1.4924873    5.8289412  -0.10272453  -0.10272453        47040 
  639500   0.99787721    4.3307567     1.496769    5.8275258  -0.12771668  -0.12771668        47040 
  640000   0.99772889     4.329071    1.4965466    5.8256176  -0.14668113  -0.14668113        47040 
  640500   0.99410981    4.3286771    1.4911181    5.8197952   -0.1025278   -0.1025278        47040 
  641000   0.99863502    4.3482131    1.4979057    5.8461188 -0.053949138 -0.053949138        47040 
  641500    1.0078868    4.3331506    1.5117829    5.8449335  -0.10299287  -0.10299287        47040 
  642000    1.0022436    4.3390102    1.5033185    5.8423287 -0.088943277 -0.088943277        47040 
  642500    1.0010131    4.3341645    1.5014728    5.8356373   -0.1020919   -0.1020919        47040 
  643000   0.99940488     4.338746    1.4990605    5.8378065 -0.086829797 -0.086829797        47040 
  643500   0.99811167    4.3255369    1.4971207    5.8226576 -0.052982563 -0.052982563        47040 
  644000   0.99567197    4.3392632    1.4934613    5.8327245 -0.097317996 -0.097317996        47040 
  644500    1.0007735    4.3382925    1.5011133    5.8394059 -0.054303637 -0.054303637        47040 
  645000    1.0057266    4.3346443    1.5085427     5.843187  -0.12386224  -0.12386224        47040 
  645500   0.99485705    4.3451601    1.4922389     5.837399  -0.11903943  -0.11903943        47040 
  646000   0.99935883    4.3430424    1.4989914    5.8420338  -0.13577744  -0.13577744        47040 
  646500     1.002197    4.3491976    1.5032485    5.8524461 -0.066138141 -0.066138141        47040 
  647000    1.0020886    4.3443451    1.5030859     5.847431 -0.096114259 -0.096114259        47040 
  647500     1.006635    4.3373892    1.5099054    5.8472946 -0.053254698 -0.053254698        47040 
  648000   0.99957104    4.3474675    1.4993097    5.8467772 -0.091877229 -0.091877229        47040 
  648500   0.99957631    4.3447237    1.4993176    5.8440413  -0.03872218  -0.03872218        47040 
  649000   0.99894753     4.335944    1.4983745    5.8343185 -0.041660307 -0.041660307        47040 
  649500   0.99390016    4.3391225    1.4908037    5.8299261  -0.10110045  -0.10110045        47040 
  650000    1.0022264    4.3424703    1.5032926    5.8457629 -0.085329578 -0.085329578        47040 
  650500    1.0039024    4.3326337    1.5058066    5.8384402  -0.11920435  -0.11920435        47040 
  651000   0.99837079    4.3445226    1.4975094     5.842032 -0.095955302 -0.095955302        47040 
  651500   0.99614834    4.3388559    1.4941758    5.8330318  -0.09653196  -0.09653196        47040 
  652000    1.0015886     4.330614     1.502336      5.83295  -0.11951831  -0.11951831        47040 
  652500    1.0032062    4.3298054    1.5047623    5.8345677  -0.16699129  -0.16699129        47040 
  653000    1.0000467    4.3377247    1.5000232    5.8377478   -0.1478202   -0.1478202        47040 
  653500    1.0037705    4.3448269    1.5056086    5.8504355  -0.15373334  -0.15373334        47040 
  654000     1.002619    4.3406248    1.5038815    5.8445063 -0.057038375 -0.057038375        47040 
  654500    1.0009345    4.3391517    1.5013548    5.8405065  -0.14775303  -0.14775303        47040 
  655000   0.99852389     4.340553     1.497739     5.838292  -0.12392113  -0.12392113        47040 
  655500    1.0017719    4.3528074    1.5026108    5.8554183 -0.089716525 -0.089716525        47040 
  656000    1.0037947    4.3372298    1.5056449    5.8428747  -0.11498371  -0.11498371        47040 
  656500   0.99368866    4.3420575    1.4904864    5.8325439  -0.14853178  -0.14853178        47040 
  657000    0.9976161    4.3555184    1.4963774    5.8518958  -0.11302488  -0.11302488        47040 
  657500   0.99869741    4.3569521    1.4979993    5.8549514 -0.091447386 -0.091447386        47040 
  658000    1.0019497    4.3462141    1.5028775    5.8490916   -0.0977196   -0.0977196        47040 
  658500    1.0006704    4.3256022    1.5009587    5.8265609 -0.068525355 -0.068525355        47040 
  659000   0.99732933    4.3217092    1.4959472    5.8176564  -0.12173521  -0.12173521        47040 
  659500   0.99852855    4.3224521     1.497746    5.8201981 -0.077352623 -0.077352623        47040 
  660000    0.9984343    4.3271227    1.4976047    5.8247274 -0.022383396 -0.022383396        47040 
  660500    1.0043681    4.3356912    1.5065051    5.8421963  -0.05722432  -0.05722432        47040 
  661000   0.99803044    4.3424287    1.4969989    5.8394275 -0.085561361 -0.085561361        47040 
  661500    1.0009713    4.3335733      1.50141    5.8349834  -0.12354404  -0.12354404        47040 
  662000   0.99583302    4.3496091    1.4937028     5.843312  -0.11909408  -0.11909408        47040 
  662500    1.0052527    4.3557437    1.5078319    5.8635757 -0.073809594 -0.073809594        47040 
  663000    0.9988486    4.3547031    1.4982261    5.8529292  -0.12390346  -0.12390346        47040 
  663500   0.99929471    4.3571398    1.4988952     5.856035  -0.06306692  -0.06306692        47040 
  664000   0.99723493    4.3627054    1.4958056    5.8585111   -0.1182216   -0.1182216        47040 
  664500     1.001993    4.3455551    1.5029425    5.8484976  -0.15094199  -0.15094199        47040 
  665000   0.99357889    4.3518621    1.4903218    5.8421839  -0.13205607  -0.13205607        47040 
  665500   0.99362878    4.3507429    1.4903966    5.8411395 -0.036808808 -0.036808808        47040 
  666000   0.99738109    4.3371962    1.4960249     5.833221  -0.14684585  -0.14684585        47040 
  666500    1.0019308    4.3251306    1.5028492    5.8279798  -0.12399154  -0.12399154        47040 
  667000    1.0019617     4.339332    1.5028955    5.8422276  -0.11287303  -0.11287303        47040 
  667500   0.99793727    4.3408322    1.4968591    5.8376913  -0.14177779  -0.14177779        47040 
  668000    1.0041891    4.3363478    1.5062366    5.8425844  -0.12290866  -0.12290866        47040 
  668500   0.99217739    4.3421023    1.4882196    5.8303219 -0.052927751 -0.052927751        47040 
  669000    1.0003918    4.3317316    1.5005407    5.8322724  -0.15243465  -0.15243465        47040 
  669500   0.99669137    4.3303001    1.4949903    5.8252905  -0.11166192  -0.11166192        47040 
  670000    1.0008353    4.3394663    1.5012061    5.8406723  -0.10429411  -0.10429411        47040 
  670500   0.99909415    4.3462209    1.4985944    5.8448153 -0.082704547 -0.082704547        47040 
  671000    1.0032983    4.3429333    1.5049005    5.8478338 -0.068775971 -0.068775971        47040 
  671500    1.0071448    4.3461924      1.51067    5.8568624  -0.11787328  -0.11787328        47040 
  672000    1.0031587    4.3342672    1.5046911    5.8389582 -0.057207014 -0.057207014        47040 
  672500   0.99422954    4.3414661    1.4912977    5.8327638 -0.093532669 -0.093532669        47040 
  673000   0.99488657    4.3500466    1.4922832    5.8423298  -0.11753608  -0.11753608        47040 
  673500   0.99996272    4.3392828    1.4998972      5.83918 -0.073750219 -0.073750219        47040 
  674000   0.99770414    4.3467117    1.4965094    5.8432211 -0.085776871 -0.085776871        47040 
  674500     0.999182     4.344825    1.4987262    5.8435511 -0.070374524 -0.070374524        47040 
  675000    1.0096795    4.3519456     1.514472    5.8664176 -0.059195773 -0.059195773        47040 
  675500    1.0058272    4.3464207    1.5086937    5.8551143 -0.078914987 -0.078914987        47040 
  676000    1.0079976    4.3395807    1.5119492    5.8515299  -0.12572779  -0.12572779        47040 
  676500    1.0053947     4.343452     1.508045     5.851497 -0.076589699 -0.076589699        47040 
  677000   0.98959131    4.3380447    1.4843406    5.8223853 -0.088844786 -0.088844786        47040 
  677500   0.99462779    4.3335301    1.4918951    5.8254251  -0.10038888  -0.10038888        47040 
  678000   0.99796287    4.3341837    1.4968975    5.8310812  -0.17620289  -0.17620289        47040 
  678500   0.99982231    4.3378003    1.4996866    5.8374869  -0.15296266  -0.15296266        47040 
  679000    1.0042114    4.3301317      1.50627    5.8364018  -0.14779558  -0.14779558        47040 
  679500    1.0013908    4.3326609    1.5020393    5.8347002 -0.071389895 -0.071389895        47040 
  680000    0.9956125    4.3320904    1.4933721    5.8254625  -0.10635376  -0.10635376        47040 
  680500   0.99796657     4.335244    1.4969031     5.832147  -0.11717045  -0.11717045        47040 
  681000    1.0057283    4.3248818    1.5085452     5.833427 -0.049742188 -0.049742188        47040 
  681500    1.0020283    4.3336492    1.5029954    5.8366446 -0.099447869 -0.099447869        47040 
  682000   0.99541351    4.3526086    1.4930736    5.8456823  -0.13189824  -0.13189824        47040 
  682500   0.99536207    4.3500919    1.4929965    5.8430883  -0.10386162  -0.10386162        47040 
  683000   0.99340625    4.3453949    1.4900628    5.8354577   -0.1502528   -0.1502528        47040 
  683500   0.99992459    4.3483371      1.49984    5.8481771 -0.096605113 -0.096605113        47040 
  684000    1.0030754    4.3436841    1.5045661    5.8482502  -0.19289539  -0.19289539        47040 
  684500    1.0045472    4.3410939    1.5067737    5.8478676   -0.1292158   -0.1292158        47040 
  685000    1.0026047    4.3569902      1.50386    5.8608502  -0.10965648  -0.10965648        47040 
  685500    1.0018141    4.3696292    1.5026742    5.8723035 -0.027589988 -0.027589988        47040 
  686000    1.0032936    4.3578889    1.5048933    5.8627823  -0.17092558  -0.17092558        47040 
  686500   0.99869164    4.3434167    1.4979907    5.8414074 -0.060924051 -0.060924051        47040 
  687000    1.0063483    4.3299402    1.5094752    5.8394155 -0.089160115 -0.089160115        47040 
  687500    1.0016965    4.3341854    1.5024978    5.8366833 -0.065036897 -0.065036897        47040 
  688000    1.0010478    4.3338721    1.5015248     5.835397   -0.1172502   -0.1172502        47040 
  688500    1.0014497    4.3375493    1.5021276    5.8396769 -0.075573797 -0.075573797        47040 
  689000    1.0042941     4.323871    1.5063941    5.8302651 -0.058671717 -0.058671717        47040 
  689500   0.99571389    4.3430453    1.4935242    5.8365695  -0.15772816  -0.15772816        47040 
  690000   0.99814125    4.3385123    1.4971651    5.8356774  -0.15113116  -0.15113116        47040 
  690500    0.9951063     4.336942    1.4926128    5.8295548   -0.1403919   -0.1403919        47040 
  691000    1.0029479    4.3436412    1.5043748     5.848016 -0.095567595 -0.095567595        47040 
  691500    1.0038749    4.3506965    1.5057653    5.8564617  -0.11884431  -0.11884431        47040 
  692000   0.99563749    4.3250842    1.4934096    5.8184938  -0.14360886  -0.14360886        47040 
  692500   0.99481249    4.3407444    1.4921721    5.8329165  -0.07575368  -0.07575368        47040 
  693000   0.99606251    4.3371322    1.4940471    5.8311792  -0.11489733  -0.11489733        47040 
  693500    1.0056424    4.3451511    1.5084165    5.8535677 -0.078173678 -0.078173678        47040 
  694000   0.99600787    4.3519051    1.4939651    5.8458702  -0.11760304  -0.11760304        47040 
  694500   0.99709668    4.3528817    1.4955983      5.84848  -0.12598414  -0.12598414        47040 
  695000   0.99716175    4.3471774    1.4956959    5.8428733 -0.077157074 -0.077157074        47040 
  695500   0.99783426    4.3213701    1.4967046    5.8180747  -0.17621566  -0.17621566        47040 
  696000   0.99502291    4.3401736    1.4924877    5.8326613 -0.099014501 -0.099014501        47040 
  696500   0.99321874     4.351812    1.4897815    5.8415936  -0.11420015  -0.11420015        47040 
  697000    1.0010945    4.3416777    1.5015948    5.8432724 -0.077441822 -0.077441822        47040 
  697500    1.0106761    4.3378303    1.5159667     5.853797 -0.064843849 -0.064843849        47040 
  698000     1.002403    4.3356774    1.5035575    5.8392349  -0.10436927  -0.10436927        47040 
  698500   0.99870702    4.3442842    1.4980137    5.8422979  -0.13076468  -0.13076468        47040 
  699000    1.0001867    4.3366472    1.5002332    5.8368804  -0.10031658  -0.10031658        47040 
  699500   0.99540578    4.3378268     1.493062    5.8308888  -0.19823368  -0.19823368        47040 
  700000   0.99462889    4.3434152    1.4918967    5.8353119 -0.070291609 -0.070291609        47040 
  700500   0.99763764    4.3316441    1.4964097    5.8280538   -0.1033337   -0.1033337        47040 
  701000   0.99221297    4.3267347     1.488273    5.8150077  -0.14901173  -0.14901173        47040 
  701500   0.99032111    4.3259691    1.4854352    5.8114043 -0.095539872 -0.095539872        47040 
  702000   0.99447254    4.3303898    1.4916622     5.822052  -0.10510598  -0.10510598        47040 
  702500   0.98891104    4.3423426    1.4833202    5.8256628 -0.094479614 -0.094479614        47040 
  703000   0.99661005     4.340336    1.4948684    5.8352044  -0.10602622  -0.10602622        47040 
  703500   0.98766353    4.3481406     1.481449    5.8295896  -0.13236262  -0.13236262        47040 
  704000   0.99898588    4.3359605     1.498432    5.8343924 -0.070639754 -0.070639754        47040 
  704500   0.99917142    4.3419828    1.4987103    5.8406931  -0.14154618  -0.14154618        47040 
  705000   0.99838505    4.3191359    1.4975308    5.8166667  -0.11554783  -0.11554783        47040 
  705500   0.99812009    4.3180287    1.4971333     5.815162 -0.066020656 -0.066020656        47040 
  706000   0.99907981    4.3266556    1.4985729    5.8252285 -0.069604951 -0.069604951        47040 
  706500    1.0047326    4.3233744    1.5070518    5.8304262 -0.093609731 -0.093609731        47040 
  707000   0.99494465    4.3372071    1.4923703    5.8295774 -0.054066321 -0.054066321        47040 
  707500   0.99771596    4.3370038    1.4965272     5.833531 -0.059351112 -0.059351112        47040 
  708000      1.00045    4.3340835     1.500628    5.8347115 -0.069584443 -0.069584443        47040 
  708500   0.99705144    4.3265215    1.4955304    5.8220519  -0.13436373  -0.13436373        47040 
  709000   0.99973687    4.3328865    1.4995584    5.8324449  -0.10755468  -0.10755468        47040 
  709500   0.99806097    4.3421489    1.4970447    5.8391936  -0.12610544  -0.12610544        47040 
  710000   0.99853652    4.3371027     1.497758    5.8348607 -0.068709319 -0.068709319        47040 
  710500   0.99423973    4.3518427     1.491313    5.8431557  -0.11738777  -0.11738777        47040 
  711000     1.003273    4.3427836    1.5048625    5.8476461  -0.14422131  -0.14422131        47040 
  711500   0.99682638    4.3390492    1.4951929     5.834242  -0.09469605  -0.09469605        47040 
  712000    1.0051382    4.3310115    1.5076602    5.8386717  -0.15938636  -0.15938636        47040 
  712500     1.016402    4.3393475    1.5245553    5.8639028  -0.10354159  -0.10354159        47040 
  713000   0.99568195    4.3255173    1.4934763    5.8189936  -0.12315169  -0.12315169        47040 
  713500   0.99360185    4.3360181    1.4903562    5.8263743 -0.030116302 -0.030116302        47040 
  714000    1.0014224    4.3253202    1.5020867    5.8274069  -0.13115361  -0.13115361        47040 
  714500   0.99507782    4.3208477    1.4925701    5.8134178  -0.10261868  -0.10261868        47040 
  715000   0.99220971    4.3267221    1.4882681    5.8149901  -0.10567314  -0.10567314        47040 
  715500   0.99715273     4.323007    1.4956824    5.8186894  -0.10679224  -0.10679224        47040 
  716000    1.0030263    4.3239688    1.5044924    5.8284612 -0.068064203 -0.068064203        47040 
  716500    1.0005139    4.3359761     1.500724       5.8367  -0.10583514  -0.10583514        47040 
  717000   0.99810745    4.3428528    1.4971144    5.8399672 -0.096854303 -0.096854303        47040 
  717500   0.99799856    4.3511338    1.4969511    5.8480849 -0.094622219 -0.094622219        47040 
  718000    1.0034586    4.3538085    1.5051409    5.8589494  -0.12750655  -0.12750655        47040 
  718500    1.0055677    4.3511019    1.5083044    5.8594063  -0.11259157  -0.11259157        47040 
  719000    0.9905685    4.3358735    1.4858063    5.8216798  -0.15588022  -0.15588022        47040 
  719500   0.99825944    4.3437063    1.4973424    5.8410487  -0.14995556  -0.14995556        47040 
  720000   0.99950055    4.3485313     1.499204    5.8477352 -0.049147049 -0.049147049        47040 
  720500    1.0055534    4.3366891     1.508283    5.8449721  -0.10674159  -0.10674159        47040 
  721000    1.0063013    4.3301938    1.5094048    5.8395986  -0.18185297  -0.18185297        47040 
  721500   0.99965127    4.3516216      1.49943    5.8510517 -0.044112116 -0.044112116        47040 
  722000    1.0052747    4.3300921    1.5078649     5.837957 -0.085991098 -0.085991098        47040 
  722500   0.99875759    4.3160421    1.4980896    5.8141317  -0.05988813  -0.05988813        47040 
  723000   0.99340315     4.343265    1.4900582    5.8333232  -0.10789679  -0.10789679        47040 
  723500   0.99789065    4.3445689    1.4967892    5.8413581  -0.11030471  -0.11030471        47040 
  724000    0.9995064    4.3499465    1.4992127    5.8491592    -0.120241    -0.120241        47040 
  724500    1.0080271     4.358133    1.5119933    5.8701263 -0.076878828 -0.076878828        47040 
  725000    1.0021509    4.3550479    1.5031793    5.8582272 -0.098462375 -0.098462375        47040 
  725500     1.000087    4.3504247    1.5000836    5.8505083 -0.095115813 -0.095115813        47040 
  726000   0.99981278    4.3390263    1.4996723    5.8386986   -0.0977595   -0.0977595        47040 
  726500   0.99735919    4.3288637     1.495992    5.8248558  -0.10130309  -0.10130309        47040 
  727000   0.99374282    4.3291526    1.4905677    5.8197203 -0.070778346 -0.070778346        47040 
  727500     1.002304    4.3291079     1.503409    5.8325169 -0.077941359 -0.077941359        47040 
  728000    1.0007543    4.3415803    1.5010846    5.8426649  -0.04974015  -0.04974015        47040 
  728500    1.0008807    4.3400296    1.5012742    5.8413038  -0.13082719  -0.13082719        47040 
  729000    1.0034505    4.3309564    1.5051287     5.836085  -0.11701764  -0.11701764        47040 
  729500    1.0006328    4.3473751    1.5009023    5.8482775   -0.1136155   -0.1136155        47040 
  730000   0.99941942     4.342555    1.4990823    5.8416373   -0.1465715   -0.1465715        47040 
  730500    1.0014192     4.331218    1.5020819    5.8332999 -0.083417077 -0.083417077        47040 
  731000    1.0010814    4.3277965    1.5015752    5.8293717 -0.076146773 -0.076146773        47040 
  731500   0.99089367    4.3278035    1.4862941    5.8140976  -0.15255121  -0.15255121        47040 
  732000    1.0079775     4.344752     1.511919     5.856671 -0.075513971 -0.075513971        47040 
  732500    1.0065632    4.3395345    1.5097977    5.8493322  -0.10385758  -0.10385758        47040 
  733000    1.0021681     4.339969    1.5032051    5.8431741   -0.1273306   -0.1273306        47040 
  733500   0.99495298    4.3532612    1.4923828     5.845644  -0.12609599  -0.12609599        47040 
  734000    1.0039916    4.3550787    1.5059404    5.8610191   -0.1654791   -0.1654791        47040 
  734500    1.0032082    4.3630787    1.5047653     5.867844 -0.085734513 -0.085734513        47040 
  735000     1.001468    4.3592387    1.5021551    5.8613938 -0.057691846 -0.057691846        47040 
  735500   0.99847234    4.3480358    1.4976617    5.8456975  -0.12196476  -0.12196476        47040 
  736000    1.0031978     4.343063    1.5047496    5.8478126  -0.16059647  -0.16059647        47040 
  736500     1.002801    4.3435587    1.5041544    5.8477131  -0.10102519  -0.10102519        47040 
  737000    1.0085286    4.3440435    1.5127456    5.8567891 -0.088246679 -0.088246679        47040 
  737500    1.0004728    4.3478128    1.5006623    5.8484752 -0.087189418 -0.087189418        47040 
  738000   0.99316581    4.3391901    1.4897022    5.8288922 -0.057639525 -0.057639525        47040 
  738500   0.99696292     4.334697    1.4953977    5.8300946  -0.12597338  -0.12597338        47040 
  739000   0.99822329    4.3393512    1.4972881    5.8366393 -0.088473024 -0.088473024        47040 
  739500   0.99693028    4.3582975    1.4953487    5.8536462  -0.10116091  -0.10116091        47040 
  740000     1.003007     4.359594    1.5044634    5.8640574  -0.12496835  -0.12496835        47040 
  740500   0.99553371    4.3601155    1.4932539    5.8533694  -0.16255546  -0.16255546        47040 
  741000   0.99204955    4.3481992    1.4880278    5.8362271 -0.090211166 -0.090211166        47040 
  741500    1.0026951    4.3375499    1.5039957    5.8415456 -0.072552898 -0.072552898        47040 
  742000    1.0091116    4.3380758    1.5136202     5.851696 -0.047236542 -0.047236542        47040 
  742500    1.0067366    4.3358395    1.5100577    5.8458972 -0.079915196 -0.079915196        47040 
  743000    1.0003344    4.3408036    1.5004547    5.8412584 -0.073867442 -0.073867442        47040 
  743500    1.0005775    4.3381451    1.5008194    5.8389644  -0.11865951  -0.11865951        47040 
  744000   0.99535622    4.3356978    1.4929877    5.8286854  -0.13059733  -0.13059733        47040 
  744500   0.99637502     4.334485    1.4945158    5.8290008 -0.099951021 -0.099951021        47040 
  745000   0.99575064     4.325451    1.4935793    5.8190303 -0.066621817 -0.066621817        47040 
  745500   0.99559318    4.3319158    1.4933431    5.8252589 -0.085092393 -0.085092393        47040 
  746000   0.99886346    4.3399026    1.4982484    5.8381509 -0.086426881 -0.086426881        47040 
  746500   0.99747238    4.3491838    1.4961618    5.8453456 -0.084164207 -0.084164207        47040 
  747000   0.99827943    4.3399856    1.4973723     5.837358  -0.11931491  -0.11931491        47040 
  747500    1.0047464    4.3382726    1.5070726    5.8453451 -0.084262204 -0.084262204        47040 
  748000    1.0069026    4.3384632    1.5103068      5.84877 -0.076801372 -0.076801372        47040 
  748500    1.0045752    4.3334635    1.5068157    5.8402792 -0.025519095 -0.025519095        47040 
  749000    1.0022486    4.3313153     1.503326    5.8346413 -0.035979293 -0.035979293        47040 
  749500   0.99252843     4.339151    1.4887461    5.8278971  -0.12613801  -0.12613801        47040 
  750000   0.99441785    4.3553949    1.4915802    5.8469751    -0.107074    -0.107074        47040 
  750500    1.0034412    4.3517145    1.5051148    5.8568293 -0.086972443 -0.086972443        47040 
  751000    1.0019288    4.3552911    1.5028463    5.8581374  -0.14680484  -0.14680484        47040 
  751500    1.0069147    4.3517165    1.5103249    5.8620414  -0.11505051  -0.11505051        47040 
  752000    1.0069734     4.347575    1.5104128    5.8579878 -0.066373465 -0.066373465        47040 
  752500    1.0020692     4.338208    1.5030568    5.8412648 -0.082757012 -0.082757012        47040 
  753000   0.99851874    4.3266359    1.4977313    5.8243672 -0.057246283 -0.057246283        47040 
  753500    1.0030954     4.328412     1.504596     5.833008 -0.065930225 -0.065930225        47040 
  754000     0.998252    4.3333727    1.4973312    5.8307039 -0.096474542 -0.096474542        47040 
  754500    1.0002392     4.335896    1.5003119    5.8362079 -0.060858723 -0.060858723        47040 
  755000    1.0082801    4.3337494     1.512373    5.8461224  -0.04081875  -0.04081875        47040 
  755500   0.99688288    4.3319586    1.4952776    5.8272362  -0.13413578  -0.13413578        47040 
  756000   0.99850821     4.331115    1.4977155    5.8288305 -0.098916845 -0.098916845        47040 
  756500    1.0019802    4.3252252    1.5029233    5.8281485 -0.084627677 -0.084627677        47040 
  757000   0.99766956     4.322033    1.4964576    5.8184906 -0.067012761 -0.067012761        47040 
  757500   0.99435033    4.3252386    1.4914789    5.8167174 -0.054280307 -0.054280307        47040 
  758000   0.99579061    4.3340106    1.4936392    5.8276499  -0.10455481  -0.10455481        47040 
  758500    1.0066427    4.3383789    1.5099169    5.8482957 -0.027996647 -0.027996647        47040 
  759000   0.99571871    4.3413384    1.4935314    5.8348698  -0.17798014  -0.17798014        47040 
  759500   0.99907242    4.3428287    1.4985618    5.8413905  -0.13018267  -0.13018267        47040 
  760000    1.0057582    4.3403677    1.5085902    5.8489578  -0.11186747  -0.11186747        47040 
  760500    1.0012859    4.3422172    1.5018819    5.8440991  -0.10903012  -0.10903012        47040 
  761000    1.0015181    4.3385963    1.5022303    5.8408266  -0.12551897  -0.12551897        47040 
  761500   0.99508931     4.337538    1.4925873    5.8301253  -0.11023656  -0.11023656        47040 
  762000    1.0045434    4.3398831    1.5067681    5.8466511 -0.089696777 -0.089696777        47040 
  762500   0.99642745    4.3415058    1.4945945    5.8361002  -0.13377371  -0.13377371        47040 
  763000    1.0070456    4.3319303    1.5105212    5.8424514    -0.115192    -0.115192        47040 
  763500   0.99803169    4.3350431    1.4970008    5.8320439 -0.069165018 -0.069165018        47040 
  764000   0.99939924     4.326022     1.499052     5.825074  -0.10380259  -0.10380259        47040 
  764500   0.99418339    4.3416555    1.4912285     5.832884  -0.13804998  -0.13804998        47040 
  765000   0.99789215    4.3355321    1.4967914    5.8323235  -0.08902632  -0.08902632        47040 
  765500   0.99912731    4.3387072    1.4986441    5.8373514 -0.081339965 -0.081339965        47040 
  766000    0.9930191    4.3427612    1.4894821    5.8322433  -0.10383893  -0.10383893        47040 
  766500    1.0020108    4.3466838    1.5029693     5.849653  -0.12583947  -0.12583947        47040 
  767000     1.003472     4.340234    1.5051609    5.8453949  -0.13004294  -0.13004294        47040 
  767500   0.99755431    4.3439882    1.4962847     5.840273  -0.10007797  -0.10007797        47040 
  768000   0.99395615    4.3475063    1.4908876     5.838394 -0.081993451 -0.081993451        47040 
  768500    1.0062952    4.3267563    1.5093956    5.8361519   -0.1543107   -0.1543107        47040 
  769000   0.99728409    4.3359557    1.4958794    5.8318351 -0.037782941 -0.037782941        47040 
  769500   0.99690772    4.3337355    1.4953148    5.8290503 -0.058918137 -0.058918137        47040 
  770000    1.0011529    4.3363203    1.5016824    5.8380027 -0.093971934 -0.093971934        47040 
  770500    1.0016486    4.3372133     1.502426    5.8396393 -0.065634296 -0.065634296        47040 
  771000    0.9991549    4.3393012    1.4986855    5.8379867  -0.10698244  -0.10698244        47040 
  771500   0.99913915    4.3421707    1.4986619    5.8408325  -0.11016515  -0.11016515        47040 
  772000   0.99843178    4.3364777    1.4976009    5.8340786 -0.094729072 -0.094729072        47040 
  772500    0.9967671    4.3288246    1.4951039    5.8239285  -0.18709488  -0.18709488        47040 
  773000     0.994476    4.3401639    1.4916674    5.8318313 -0.084077957 -0.084077957        47040 
  773500    1.0004184    4.3381651    1.5005806    5.8387458  -0.11568287  -0.11568287        47040 
  774000   0.99857026    4.3484139    1.4978086    5.8462225  -0.13509616  -0.13509616        47040 
  774500    0.9947274    4.3507781    1.4920445    5.8428225 -0.092504024 -0.092504024        47040 
  775000   0.99264767    4.3484916     1.488925    5.8374166 -0.095082099 -0.095082099        47040 
  775500   0.99233753    4.3457451    1.4884598    5.8342048  -0.20221272  -0.20221272        47040 
  776000   0.99976283    4.3485597    1.4995974    5.8481571  -0.11089539  -0.11089539        47040 
  776500    1.0007238    4.3372984    1.5010388    5.8383371  -0.11064882  -0.11064882        47040 
  777000      1.00618    4.3254669    1.5092229    5.8346898  -0.10171422  -0.10171422        47040 
  777500    1.0026768    4.3465852    1.5039682    5.8505534 -0.027225863 -0.027225863        47040 
  778000   0.99552947    4.3333252    1.4932475    5.8265727 -0.090837035 -0.090837035        47040 
  778500   0.99942276    4.3322768    1.4990873    5.8313641 -0.084324932 -0.084324932        47040 
  779000   0.99990089    4.3451639    1.4998045    5.8449684   -0.1188331   -0.1188331        47040 
  779500   0.99569529    4.3465537    1.4934963      5.84005  -0.17253232  -0.17253232        47040 
  780000    0.9989758    4.3573944    1.4984169    5.8558113  -0.11160045  -0.11160045        47040 
  780500   0.99978004    4.3676884    1.4996232    5.8673116 -0.027791684 -0.027791684        47040 
  781000   0.99892514    4.3505945    1.4983409    5.8489354 -0.096691758 -0.096691758        47040 
  781500   0.99967097    4.3481595    1.4994596    5.8476191  -0.10116398  -0.10116398        47040 
  782000   0.99434485    4.3429575    1.4914707    5.8344282   -0.1268696   -0.1268696        47040 
  782500   0.99385502    4.3333602    1.4907359    5.8240962 -0.073217437 -0.073217437        47040 
  783000   0.99906373    4.3420976    1.4985488    5.8406464 -0.050721858 -0.050721858        47040 
  783500    1.0012844    4.3542806    1.5018796    5.8561602 -0.089061002 -0.089061002        47040 
  784000   0.99472021    4.3399712    1.4920337    5.8320049 -0.081895647 -0.081895647        47040 
  784500    1.0028848     4.322329    1.5042801    5.8266092   -0.1016851   -0.1016851        47040 
  785000   0.99288905     4.324374     1.489287     5.813661 -0.097807386 -0.097807386        47040 
  785500   0.99399248    4.3218782    1.4909421    5.8128203  -0.13160626  -0.13160626        47040 
  786000    1.0029724    4.3271142    1.5044116    5.8315258  -0.10183396  -0.10183396        47040 
  786500    1.0032811      4.33062    1.5048747    5.8354946 -0.058919242 -0.058919242        47040 
  787000    1.0011383    4.3423935    1.5016605     5.844054 -0.073747466 -0.073747466        47040 
  787500   0.99533696    4.3364371    1.4929588    5.8293958 -0.075938664 -0.075938664        47040 
  788000   0.99757046    4.3329792    1.4963089    5.8292881  -0.15746633  -0.15746633        47040 
  788500   0.99816769    4.3397663    1.4972047    5.8369711 -0.068534466 -0.068534466        47040 
  789000   0.99608437    4.3489697    1.4940799    5.8430496 -0.094636193 -0.094636193        47040 
  789500   0.99499446    4.3522635     1.492445    5.8447086   -0.1033191   -0.1033191        47040 
  790000    1.0027341    4.3513898    1.5040542     5.855444  -0.11609528  -0.11609528        47040 
  790500    1.0055525    4.3528351    1.5082816    5.8611167 -0.098029396 -0.098029396        47040 
  791000    1.0098368    4.3446484    1.5147079    5.8593563  -0.15334154  -0.15334154        47040 
  791500    1.0051078    4.3508015    1.5076146    5.8584161 -0.097649287 -0.097649287        47040 
  792000    1.0033078    4.3600105    1.5049146    5.8649252 -0.084413845 -0.084413845        47040 
  792500     1.002382    4.3524597     1.503526    5.8559857  -0.17344059  -0.17344059        47040 
  793000    1.0071589    4.3393583    1.5106911    5.8500494  -0.16230277  -0.16230277        47040 
  793500   0.99782371    4.3497758    1.4966888    5.8464646    -0.131998    -0.131998        47040 
  794000   0.99057656    4.3463868    1.4858184    5.8322052  -0.11139669  -0.11139669        47040 
  794500   0.99114764    4.3479863     1.486675    5.8346613  -0.10021945  -0.10021945        47040 
  795000     1.001486    4.3527772    1.5021821    5.8549593   -0.0460386   -0.0460386        47040 
  795500    1.0064653    4.3393261    1.5096508    5.8489769 -0.089096568 -0.089096568        47040 
  796000    1.0054373    4.3347345    1.5081088    5.8428433 -0.042725742 -0.042725742        47040 
  796500   0.99405176    4.3497206     1.491031    5.8407517 -0.011985672 -0.011985672        47040 
  797000   0.99225225     4.346567    1.4883319    5.8348989  -0.09376103  -0.09376103        47040 
  797500    0.9964935    4.3518973    1.4946935    5.8465909   -0.1318207   -0.1318207        47040 
  798000   0.99989309    4.3513624    1.4997928    5.8511552  -0.14133866  -0.14133866        47040 
  798500    1.0002615    4.3643498    1.5003454    5.8646952  -0.15063785  -0.15063785        47040 
  799000   0.99851671    4.3740414    1.4977283    5.8717697  -0.11167592  -0.11167592        47040 
  799500    1.0035326    4.3504172    1.5052518    5.8556691  -0.12423179  -0.12423179        47040 
  800000   0.99780496    4.3477148    1.4966607    5.8443754  -0.13569568  -0.13569568        47040 
  800500   0.99214499    4.3473706     1.488171    5.8355415 -0.083600185 -0.083600185        47040 
  801000   0.99510377    4.3377223     1.492609    5.8303313  -0.11398399  -0.11398399        47040 
  801500   0.99703713    4.3322416     1.495509    5.8277505  -0.12174296  -0.12174296        47040 
  802000   0.99822935    4.3365815    1.4972972    5.8338788  -0.12173601  -0.12173601        47040 
  802500    1.0065032    4.3406167    1.5097077    5.8503244 -0.085329722 -0.085329722        47040 
  803000   0.99834243    4.3467185    1.4974669    5.8441854 -0.068208697 -0.068208697        47040 
  803500    1.0074588    4.3584983    1.5111409    5.8696392  -0.12946219  -0.12946219        47040 
  804000     1.005832    4.3477592    1.5087008    5.8564601  -0.13759195  -0.13759195        47040 
  804500     1.000763    4.3519925    1.5010976    5.8530901  -0.20052048  -0.20052048        47040 
  805000    1.0055271    4.3508657    1.5082436    5.8591092 -0.067573949 -0.067573949        47040 
  805500    1.0046894    4.3415781    1.5069869     5.848565  -0.14566721  -0.14566721        47040 
  806000   0.99501634    4.3494762    1.4924779     5.841954  -0.10658758  -0.10658758        47040 
  806500   0.99154242    4.3430571    1.4872671    5.8303242  -0.15707545  -0.15707545        47040 
  807000   0.99280747    4.3359295    1.4891647    5.8250941 -0.095227216 -0.095227216        47040 
  807500   0.99298226    4.3328378    1.4894268    5.8222647   -0.1161102   -0.1161102        47040 
  808000   0.99886826    4.3441237    1.4982556    5.8423793  -0.11328478  -0.11328478        47040 
  808500    1.0005106    4.3330401     1.500719    5.8337591  -0.12099974  -0.12099974        47040 
  809000   0.99208044    4.3371758    1.4880742    5.8252499  -0.13183718  -0.13183718        47040 
  809500    0.9918406    4.3346716    1.4877144     5.822386 -0.053423344 -0.053423344        47040 
  810000   0.99419973    4.3373822     1.491253    5.8286352 -0.080655283 -0.080655283        47040 
  810500   0.99418595    4.3411356    1.4912323    5.8323679  -0.10244442  -0.10244442        47040 
  811000   0.99291764     4.347794    1.4893299    5.8371239  -0.14027121  -0.14027121        47040 
  811500   0.99883684    4.3480265    1.4982084    5.8462349  -0.12179785  -0.12179785        47040 
  812000    1.0017661    4.3537674    1.5026022    5.8563696 -0.078211306 -0.078211306        47040 
  812500   0.99985373    4.3556543    1.4997337     5.855388 -0.078759724 -0.078759724        47040 
  813000    1.0051956    4.3294452    1.5077462    5.8371914  -0.11959297  -0.11959297        47040 
  813500   0.99344639    4.3483277     1.490123    5.8384507 -0.082432816 -0.082432816        47040 
  814000    1.0005626    4.3488142    1.5007971    5.8496113 -0.083494798 -0.083494798        47040 
  814500   0.98970979     4.364886    1.4845183    5.8494043   -0.1853737   -0.1853737        47040 
  815000    0.9966979    4.3611068    1.4950001    5.8561069  -0.15027368  -0.15027368        47040 
  815500    1.0046358    4.3696101    1.5069066    5.8765166  -0.12024262  -0.12024262        47040 
  816000    1.0044859    4.3525274    1.5066818    5.8592091  -0.13398109  -0.13398109        47040 
  816500    1.0022124    4.3575622    1.5032716    5.8608338 -0.057158679 -0.057158679        47040 
  817000    1.0056158    4.3402836    1.5083766    5.8486602  -0.11459756  -0.11459756        47040 
  817500    1.0033058    4.3341603    1.5049117     5.839072 -0.079623377 -0.079623377        47040 
  818000    1.0024736    4.3268387    1.5036633     5.830502 -0.093597775 -0.093597775        47040 
  818500   0.99705338    4.3261457    1.4955333    5.8216791  -0.12766706  -0.12766706        47040 
  819000   0.99559634    4.3390562    1.4933478     5.832404 -0.067325078 -0.067325078        47040 
  819500     1.003616    4.3224335    1.5053769    5.8278104  -0.16481403  -0.16481403        47040 
  820000    0.9966223    4.3343401    1.4948867    5.8292269  -0.11783323  -0.11783323        47040 
  820500   0.99847545    4.3404696    1.4976664     5.838136 -0.038015047 -0.038015047        47040 
  821000    1.0038541    4.3353256    1.5057342    5.8410597  -0.04559594  -0.04559594        47040 
  821500    1.0089469    4.3366711     1.513373    5.8500441 -0.062539463 -0.062539463        47040 
  822000   0.99631779    4.3330598      1.49443    5.8274898 -0.067435464 -0.067435464        47040 
  822500    1.0016031    4.3270489    1.5023577    5.8294065  -0.11732908  -0.11732908        47040 
  823000   0.99759271    4.3322499    1.4963423    5.8285922  -0.13467469  -0.13467469        47040 
  823500   0.99966536    4.3316447    1.4994512    5.8310959  -0.15121138  -0.15121138        47040 
  824000    1.0029032    4.3435067    1.5043078    5.8478145  -0.10160664  -0.10160664        47040 
  824500   0.99631148    4.3499767    1.4944205    5.8443972 -0.083067487 -0.083067487        47040 
  825000    1.0017501    4.3267503    1.5025782    5.8293285 -0.070616609 -0.070616609        47040 
  825500     1.001157    4.3192343    1.5016886    5.8209229 -0.084442173 -0.084442173        47040 
  826000   0.99947673    4.3286605    1.4991682    5.8278287  -0.11406448  -0.11406448        47040 
  826500    1.0033938    4.3454699    1.5050436    5.8505135 -0.056312373 -0.056312373        47040 
  827000   0.99630329    4.3492197    1.4944082     5.843628  -0.13735756  -0.13735756        47040 
  827500    1.0027773    4.3568721    1.5041189     5.860991  -0.12140411  -0.12140411        47040 
  828000   0.99451148     4.357247    1.4917206    5.8489676  -0.15327317  -0.15327317        47040 
  828500   0.99795553    4.3425751    1.4968865    5.8394616 -0.065030079 -0.065030079        47040 
  829000    1.0010041    4.3364077    1.5014592    5.8378669 -0.084589364 -0.084589364        47040 
  829500   0.99772673    4.3420459    1.4965433    5.8385893 -0.069274581 -0.069274581        47040 
  830000   0.99825031    4.3460228    1.4973287    5.8433514 -0.071450236 -0.071450236        47040 
  830500   0.99188303    4.3475139    1.4877781     5.835292 -0.081935346 -0.081935346        47040 
  831000     1.003312    4.3266166     1.504921    5.8315377  -0.16431333  -0.16431333        47040 
  831500   0.99682021     4.338741    1.4951836    5.8339245  -0.13554719  -0.13554719        47040 
  832000    0.9935936    4.3535538    1.4903438    5.8438976  -0.14241887  -0.14241887        47040 
  832500    0.9991389    4.3481147    1.4986615    5.8467762  -0.10767339  -0.10767339        47040 
  833000   0.99761569    4.3481254    1.4963768    5.8445022  -0.12443494  -0.12443494        47040 
  833500   0.99876024    4.3511402    1.4980935    5.8492337  -0.11585135  -0.11585135        47040 
  834000   0.99404628    4.3486677    1.4910228    5.8396905  -0.12993381  -0.12993381        47040 
  834500   0.99577855    4.3489712    1.4936211    5.8425924  -0.18577645  -0.18577645        47040 
  835000    0.9987626    4.3436561    1.4980971    5.8417532 -0.028992128 -0.028992128        47040 
  835500   0.99893406    4.3496006    1.4983543    5.8479549  -0.11855616  -0.11855616        47040 
  836000    1.0071808    4.3459422    1.5107239    5.8566662  -0.13936271  -0.13936271        47040 
  836500    1.0042067    4.3474373     1.506263    5.8537002  -0.14912383  -0.14912383        47040 
  837000    1.0045695    4.3499128    1.5068071    5.8567199 -0.083500008 -0.083500008        47040 
  837500    1.0019389    4.3474472    1.5028613    5.8503085  -0.11105167  -0.11105167        47040 
  838000    1.0041143    4.3349988    1.5061244    5.8411233  -0.16438439  -0.16438439        47040 
  838500    1.0062922    4.3412255    1.5093911    5.8506167 -0.085876447 -0.085876447        47040 
  839000    1.0011425    4.3538395    1.5016668    5.8555063 -0.075800487 -0.075800487        47040 
  839500    1.0014313    4.3456213       1.5021    5.8477213 -0.063658691 -0.063658691        47040 
  840000    1.0040314    4.3350177        1.506    5.8410177 -0.074120245 -0.074120245        47040 
  840500    1.0022443     4.336484    1.5033195    5.8398035 -0.076825367 -0.076825367        47040 
  841000    1.0006706    4.3256794    1.5009589    5.8266383  -0.10940755  -0.10940755        47040 
  841500   0.99942705    4.3275222    1.4990937    5.8266159 -0.049644206 -0.049644206        47040 
  842000   0.99341588    4.3405356    1.4900773    5.8306129 -0.075898294 -0.075898294        47040 
  842500   0.99668795    4.3350512    1.4949852    5.8300365 -0.090114421 -0.090114421        47040 
  843000   0.99473567    4.3257559    1.4920569    5.8178128  -0.12549833  -0.12549833        47040 
  843500   0.99798892    4.3393574    1.4969366     5.836294  -0.10437212  -0.10437212        47040 
  844000   0.98852231     4.343439    1.4827371    5.8261761  -0.13058717  -0.13058717        47040 
  844500   0.99377885    4.3410229    1.4906217    5.8316446  -0.11634266  -0.11634266        47040 
  845000   0.99508692    4.3435222    1.4925837    5.8361059  -0.11069303  -0.11069303        47040 
  845500     0.999425    4.3517625    1.4990907    5.8508532 -0.055385449 -0.055385449        47040 
  846000   0.99606422    4.3372005    1.4940496    5.8312502   -0.1410509   -0.1410509        47040 
  846500    1.0005139     4.337961    1.5007239     5.838685  -0.14572225  -0.14572225        47040 
  847000    1.0046059    4.3474847    1.5068618    5.8543465 -0.096521808 -0.096521808        47040 
  847500   0.99635984    4.3497384    1.4944931    5.8442315  -0.10660115  -0.10660115        47040 
  848000    0.9988366    4.3521913    1.4982081    5.8503994  -0.12003703  -0.12003703        47040 
  848500   0.99909026    4.3579713    1.4985886    5.8565598 -0.073108309 -0.073108309        47040 
  849000   0.99682439    4.3350818    1.4951899    5.8302717  -0.14271904  -0.14271904        47040 
  849500   0.99757523    4.3231356    1.4963161    5.8194517  -0.12772716  -0.12772716        47040 
  850000    1.0021056    4.3292503    1.5031114    5.8323617  -0.05888716  -0.05888716        47040 
  850500   0.99145714      4.33325    1.4871392    5.8203892 -0.0052363817 -0.0052363817        47040 
  851000   0.99557685    4.3357531    1.4933186    5.8290717 -0.044907192 -0.044907192        47040 
  851500   0.99652034    4.3427257    1.4947338    5.8374595  -0.09363656  -0.09363656        47040 
  852000   0.99900395    4.3350417    1.4984591    5.8335007  -0.14354632  -0.14354632        47040 
  852500   0.98865176    4.3402858    1.4829313    5.8232171 -0.071094556 -0.071094556        47040 
  853000    1.0056166    4.3607913    1.5083777     5.869169 -0.045610103 -0.045610103        47040 
  853500    1.0070609     4.352699    1.5105441    5.8632432  -0.12767232  -0.12767232        47040 
  854000    1.0052586    4.3440219    1.5078407    5.8518626  -0.10085872  -0.10085872        47040 
  854500    1.0038474    4.3416691    1.5057241    5.8473932 -0.066901035 -0.066901035        47040 
  855000    0.9978709     4.349264    1.4967596    5.8460236  0.022448335  0.022448335        47040 
  855500   0.99721413    4.3370895    1.4957745    5.8328639  -0.14127481  -0.14127481        47040 
  856000    1.0006033    4.3284186     1.500858    5.8292766   -0.1395945   -0.1395945        47040 
  856500   0.99784283    4.3445006    1.4967175     5.841218  -0.05787357  -0.05787357        47040 
  857000    1.0067397    4.3411254    1.5100624    5.8511878 -0.055659814 -0.055659814        47040 
  857500    1.0054575    4.3342618    1.5081391     5.842401  -0.11042148  -0.11042148        47040 
  858000    1.0009707    4.3356607    1.5014092    5.8370699 -0.093927743 -0.093927743        47040 
  858500    1.0043355    4.3305673    1.5064562    5.8370235 -0.064388473 -0.064388473        47040 
  859000    1.0020331     4.333843    1.5030026    5.8368456 -0.091776974 -0.091776974        47040 
  859500    1.0028581    4.3371066    1.5042401    5.8413467  -0.11322657  -0.11322657        47040 
  860000    1.0035504    4.3493521    1.5052785    5.8546306  -0.10777414  -0.10777414        47040 
  860500    1.0055868    4.3361984    1.5083331    5.8445316   -0.1703076   -0.1703076        47040 
  861000    1.0013777    4.3510441    1.5020196    5.8530636  -0.04303619  -0.04303619        47040 
  861500   0.99779841    4.3350833    1.4966508    5.8317342  -0.14031953  -0.14031953        47040 
  862000     0.996654    4.3376284    1.4949343    5.8325627  -0.12969068  -0.12969068        47040 
  862500    1.0024081    4.3478569    1.5035651     5.851422 -0.071650528 -0.071650528        47040 
  863000    1.0071536    4.3463123    1.5106832    5.8569956 -0.047994997 -0.047994997        47040 
  863500    1.0000221    4.3509362    1.4999863    5.8509226 -0.096511633 -0.096511633        47040 
  864000    1.0044858    4.3560837    1.5066816    5.8627653  -0.12194282  -0.12194282        47040 
  864500    1.0064474    4.3512295     1.509624    5.8608535 -0.068994118 -0.068994118        47040 
  865000    1.0022752    4.3462678    1.5033657    5.8496336  -0.12555269  -0.12555269        47040 
  865500    1.0031177    4.3544095    1.5046295     5.859039  -0.12636943  -0.12636943        47040 
  866000    1.0007052    4.3459691    1.5010109      5.84698 -0.056137477 -0.056137477        47040 
  866500    1.0031453     4.333676    1.5046709     5.838347  -0.11862352  -0.11862352        47040 
  867000    0.9970246    4.3399333    1.4954902    5.8354234  -0.10267071  -0.10267071        47040 
  867500    1.0010697    4.3305553    1.5015576     5.832113  -0.11632534  -0.11632534        47040 
  868000    1.0034061    4.3236052    1.5050622    5.8286673 -0.034693942 -0.034693942        47040 
  868500    1.0015231     4.331324    1.5022377    5.8335617 -0.084618722 -0.084618722        47040 
  869000    1.0071185    4.3315923    1.5106305    5.8422227 -0.086170092 -0.086170092        47040 
  869500    1.0060956    4.3406935    1.5090963    5.8497898 -0.033905892 -0.033905892        47040 
  870000     1.004618    4.3307931    1.5068798    5.8376729  -0.14003454  -0.14003454        47040 
  870500   0.99920511    4.3413874    1.4987608    5.8401482 -0.086946118 -0.086946118        47040 
  871000    0.9936816     4.345011    1.4904758    5.8354868  -0.13696505  -0.13696505        47040 
  871500   0.99582109    4.3432662     1.493685    5.8369512 -0.059863913 -0.059863913        47040 
  872000   0.99092924    4.3668248    1.4863474    5.8531722 -0.032168785 -0.032168785        47040 
  872500    1.0032897    4.3498136    1.5048875    5.8547012  -0.11606299  -0.11606299        47040 
  873000     1.001917    4.3484092    1.5028286    5.8512378 -0.078667598 -0.078667598        47040 
  873500   0.99233667    4.3454751    1.4884585    5.8339336  -0.13136643  -0.13136643        47040 
  874000       0.9932    4.3429683    1.4897534    5.8327217  -0.12894363  -0.12894363        47040 
  874500   0.98988699    4.3414085    1.4847841    5.8261926  -0.16221387  -0.16221387        47040 
  875000    1.0033617    4.3559299    1.5049956    5.8609255 -0.090465704 -0.090465704        47040 
  875500    1.0046008    4.3534475    1.5068541    5.8603015  -0.14242056  -0.14242056        47040 
  876000     1.005221    4.3544929    1.5077844    5.8622774  -0.14956188  -0.14956188        47040 
  876500    1.0091121    4.3472144    1.5136209    5.8608353   -0.1084875   -0.1084875        47040 
  877000   0.99834255     4.328737     1.497467     5.826204  -0.15351252  -0.15351252        47040 
  877500   0.99716981    4.3304852     1.495708    5.8261931 -0.029681128 -0.029681128        47040 
  878000    0.9916203    4.3304447     1.487384    5.8178286 -0.073187979 -0.073187979        47040 
  878500   0.99376474    4.3249833    1.4906005    5.8155838  -0.12070104  -0.12070104        47040 
  879000    1.0076996    4.3318132    1.5115022    5.8433154  -0.15825751  -0.15825751        47040 
  879500   0.99624905     4.350821    1.4943269    5.8451479 -0.097543739 -0.097543739        47040 
  880000    1.0003858    4.3511937    1.5005318    5.8517255  -0.13903288  -0.13903288        47040 
  880500    1.0068857    4.3576441    1.5102814    5.8679255  -0.14753917  -0.14753917        47040 
  881000    1.0032148    4.3666141    1.5047752    5.8713894  -0.12542303  -0.12542303        47040 
  881500    1.0009289    4.3598939    1.5013465    5.8612404  -0.11671605  -0.11671605        47040 
  882000     0.998726    4.3510242    1.4980422    5.8490664 -0.087339113 -0.087339113        47040 
  882500   0.99864887     4.342572    1.4979265    5.8404985  -0.16521464  -0.16521464        47040 
  883000   0.99761389    4.3473497    1.4963741    5.8437238 -0.055635807 -0.055635807        47040 
  883500   0.99303785    4.3487843    1.4895102    5.8382945  -0.11459966  -0.11459966        47040 
  884000   0.99855894    4.3347873    1.4977916    5.8325789  -0.13576433  -0.13576433        47040 
  884500    1.0005834    4.3479507    1.5008282    5.8487789 -0.093819791 -0.093819791        47040 
  885000    1.0061691     4.356605    1.5092065    5.8658115  -0.10191045  -0.10191045        47040 
  885500     1.004529    4.3493515    1.5067465    5.8560979 -0.069698302 -0.069698302        47040 
  886000    1.0065987    4.3401255    1.5098509    5.8499765   -0.1508603   -0.1508603        47040 
  886500   0.99851663    4.3485554    1.4977281    5.8462835  -0.12868698  -0.12868698        47040 
  887000    1.0108328    4.3367673    1.5162018     5.852969  -0.12814173  -0.12814173        47040 
  887500    1.0060326    4.3284285    1.5090017    5.8374302 -0.037314449 -0.037314449        47040 
  888000   0.99766361    4.3360712    1.4964486    5.8325198  -0.08044685  -0.08044685        47040 
  888500   0.99699648    4.3229115     1.495448    5.8183594  -0.11769507  -0.11769507        47040 
  889000     1.000796     4.319959     1.501147     5.821106  -0.10609753  -0.10609753        47040 
  889500   0.99478174    4.3287021     1.492126    5.8208281 -0.042921546 -0.042921546        47040 
  890000   0.98710707    4.3269825    1.4806143    5.8075968  -0.10507783  -0.10507783        47040 
  890500    1.0078024    4.3356292    1.5116563    5.8472855 -0.077110283 -0.077110283        47040 
  891000    1.0006134    4.3446109    1.5008732    5.8454841  -0.12793207  -0.12793207        47040 
  891500    1.0050191     4.335937    1.5074816    5.8434186 -0.080489184 -0.080489184        47040 
  892000     1.006175    4.3404194    1.5092154    5.8496348  -0.07952159  -0.07952159        47040 
  892500    1.0101022    4.3451293     1.515106    5.8602353  -0.08157271  -0.08157271        47040 
  893000   0.99810551    4.3322907    1.4971115    5.8294021  -0.16171916  -0.16171916        47040 
  893500   0.99605297    4.3488566    1.4940328    5.8428893 -0.085845905 -0.085845905        47040 
  894000   0.99189265    4.3517826    1.4877925    5.8395751 -0.095655718 -0.095655718        47040 
  894500   0.99453513    4.3451115    1.4917561    5.8368676  -0.12057717  -0.12057717        47040 
  895000   0.99623725    4.3488812    1.4943092    5.8431904  -0.11311879  -0.11311879        47040 
  895500   0.99676739    4.3455501    1.4951044    5.8406544  -0.13566863  -0.13566863        47040 
  896000     1.005212    4.3638472    1.5077709    5.8716181  -0.10593644  -0.10593644        47040 
  896500    1.0059448    4.3546103    1.5088701    5.8634803 -0.075050092 -0.075050092        47040 
  897000    1.0005347    4.3401222    1.5007551    5.8408773  -0.16085196  -0.16085196        47040 
  897500    1.0057388    4.3365369    1.5085611     5.845098  -0.15339545  -0.15339545        47040 
  898000    1.0080805    4.3420623    1.5120735    5.8541358  -0.11850437  -0.11850437        47040 
  898500    1.0051241     4.340957     1.507639     5.848596 -0.023425117 -0.023425117        47040 
  899000    1.0025283    4.3434392    1.5037454    5.8471846 -0.083242817 -0.083242817        47040 
  899500   0.99007269    4.3522518    1.4850626    5.8373144 -0.096324922 -0.096324922        47040 
  900000   0.99564114    4.3407112     1.493415    5.8341262  -0.13446387  -0.13446387        47040 
  900500   0.99228417    4.3537818    1.4883797    5.8421616  -0.11099863  -0.11099863        47040 
  901000    1.0000768    4.3480737    1.5000684    5.8481421 -0.062307492 -0.062307492        47040 
  901500    0.9991118    4.3472729    1.4986209    5.8458938 -0.089191881 -0.089191881        47040 
  902000    1.0009306    4.3299359    1.5013491     5.831285 -0.091368675 -0.091368675        47040 
  902500   0.99876426    4.3379304    1.4980996      5.83603  -0.11554212  -0.11554212        47040 
  903000    1.0051106    4.3389675    1.5076188    5.8465863  -0.11342579  -0.11342579        47040 
  903500    1.0003188    4.3472379    1.5004313    5.8476691 0.0076586284 0.0076586284        47040 
  904000   0.99573572    4.3300994    1.4935569    5.8236563  -0.18203981  -0.18203981        47040 
  904500   0.99522421    4.3430328    1.4927897    5.8358225  -0.11905418  -0.11905418        47040 
  905000   0.99914802    4.3366445    1.4986752    5.8353197 -0.090343886 -0.090343886        47040 
  905500    1.0020462    4.3365251    1.5030223    5.8395474 -0.056570589 -0.056570589        47040 
  906000   0.99997222      4.34615    1.4999114    5.8460614 -0.096900357 -0.096900357        47040 
  906500    1.0008084    4.3336942    1.5011657    5.8348599 -0.074663034 -0.074663034        47040 
  907000   0.99988757    4.3414765    1.4997845     5.841261 -0.089614334 -0.089614334        47040 
  907500    1.0022861     4.339786    1.5033821    5.8431681 -0.062051303 -0.062051303        47040 
  908000    1.0062314    4.3395822    1.5092999    5.8488821 -0.093529513 -0.093529513        47040 
  908500    1.0057731    4.3413417    1.5086126    5.8499543  -0.12425742  -0.12425742        47040 
  909000   0.99790156     4.360493    1.4968056    5.8572986 -0.085577047 -0.085577047        47040 
  909500    1.0033751    4.3412547    1.5050156    5.8462702 -0.081810741 -0.081810741        47040 
  910000    1.0033876    4.3442677    1.5050343     5.849302 -0.063374289 -0.063374289        47040 
  910500    1.0052917    4.3418418    1.5078904    5.8497322  -0.12493102  -0.12493102        47040 
  911000    1.0013597    4.3368334    1.5019926     5.838826  -0.14418897  -0.14418897        47040 
  911500   0.99214493    4.3437419    1.4881709    5.8319128  -0.12972677  -0.12972677        47040 
  912000    0.9931702     4.334653    1.4897087    5.8243617  -0.12878391  -0.12878391        47040 
  912500    1.0055413    4.3320829    1.5082647    5.8403476  -0.11052292  -0.11052292        47040 
  913000    1.0064258    4.3299298    1.5095915    5.8395213   -0.1115105   -0.1115105        47040 
  913500   0.98699627     4.338986    1.4804481    5.8194341 -0.067937791 -0.067937791        47040 
  914000   0.99635948    4.3348548    1.4944925    5.8293473 -0.098771457 -0.098771457        47040 
  914500   0.99478131    4.3495497    1.4921253     5.841675 -0.078707805 -0.078707805        47040 
  915000   0.99470022    4.3504089    1.4920037    5.8424127 -0.096939325 -0.096939325        47040 
  915500    1.0052152    4.3425199    1.5077757    5.8502955 -0.096235602 -0.096235602        47040 
  916000   0.99751682     4.362929    1.4962285    5.8591575  -0.12601129  -0.12601129        47040 
  916500    1.0040115    4.3774283    1.5059701    5.8833984 -0.077714566 -0.077714566        47040 
  917000   0.99930379    4.3578635    1.4989088    5.8567724  -0.16143496  -0.16143496        47040 
  917500    0.9976345    4.3648573     1.496405    5.8612623  -0.15843424  -0.15843424        47040 
  918000   0.99610021    4.3477423    1.4941036    5.8418459  -0.13564684  -0.13564684        47040 
  918500    1.0025476     4.336965    1.5037745    5.8407395  -0.11508285  -0.11508285        47040 
  919000    1.0060842    4.3407837    1.5090791    5.8498628 -0.071860458 -0.071860458        47040 
  919500    1.0040996    4.3371775    1.5061023    5.8432798 -0.078667719 -0.078667719        47040 
  920000   0.99811504    4.3446606    1.4971258    5.8417864 -0.074061361 -0.074061361        47040 
  920500    1.0017993    4.3354212     1.502652    5.8380733  -0.16788384  -0.16788384        47040 
  921000    0.9926835     4.347909    1.4889787    5.8368877 -0.091744282 -0.091744282        47040 
  921500   0.99492565    4.3432041    1.4923418    5.8355459  -0.15354344  -0.15354344        47040 
  922000    1.0078988    4.3452233     1.511801    5.8570242  -0.11375081  -0.11375081        47040 
  922500      1.00182    4.3441797    1.5026831    5.8468628 -0.025271471 -0.025271471        47040 
  923000    1.0005995    4.3377509    1.5008523    5.8386032  -0.10635318  -0.10635318        47040 
  923500   0.99763284    4.3270129    1.4964025    5.8234154 -0.095813079 -0.095813079        47040 
  924000    1.0017096    4.3246155    1.5025174    5.8271329 -0.092435513 -0.092435513        47040 
  924500   0.99900023    4.3282445    1.4984535     5.826698 -0.094956223 -0.094956223        47040 
  925000   0.99983314    4.3351839    1.4997028    5.8348868 -0.071864987 -0.071864987        47040 
  925500   0.99515457    4.3258185    1.4926852    5.8185037  -0.14348045  -0.14348045        47040 
  926000   0.99619575    4.3343764    1.4942469    5.8286234  -0.09180613  -0.09180613        47040 
  926500    1.0039192    4.3236967    1.5058317    5.8295284 -0.072661481 -0.072661481        47040 
  927000   0.99810496    4.3385224    1.4971107     5.835633  -0.10930563  -0.10930563        47040 
  927500    0.9976842    4.3350295    1.4964795    5.8315091   -0.1257608   -0.1257608        47040 
  928000    0.9941656    4.3421017    1.4912018    5.8333035 -0.072142848 -0.072142848        47040 
  928500   0.99882738    4.3382908    1.4981942    5.8364851  -0.10286269  -0.10286269        47040 
  929000     1.004082    4.3270099    1.5060759    5.8330858 -0.082606365 -0.082606365        47040 
  929500   0.99896893    4.3361049    1.4984066    5.8345115 -0.048992518 -0.048992518        47040 
  930000   0.99982341    4.3485948    1.4996882     5.848283 -0.057215817 -0.057215817        47040 
  930500   0.99544055    4.3497322    1.4931142    5.8428464  -0.12275485  -0.12275485        47040 
  931000    1.0005996    4.3417532    1.5008525    5.8426057  -0.14763197  -0.14763197        47040 
  931500    1.0003669    4.3391035    1.5005034    5.8396069  -0.10939511  -0.10939511        47040 
  932000    1.0048942    4.3335677    1.5072943    5.8408619 -0.092827235 -0.092827235        47040 
  932500    1.0048188    4.3269543    1.5071811    5.8341354   -0.1096158   -0.1096158        47040 
  933000    1.0047412    4.3272279    1.5070647    5.8342926 -0.051375182 -0.051375182        47040 
  933500    1.0059345    4.3276602    1.5088547    5.8365149 -0.068044951 -0.068044951        47040 
  934000    1.0023691    4.3366994    1.5035066     5.840206 -0.067179737 -0.067179737        47040 
  934500   0.99674042    4.3320269    1.4950639    5.8270909  -0.12369911  -0.12369911        47040 
  935000   0.98755499    4.3446449    1.4812862    5.8259311  -0.15803208  -0.15803208        47040 
  935500   0.99581451    4.3401443    1.4936751    5.8338194  -0.11916959  -0.11916959        47040 
  936000   0.99642407    4.3477969    1.4945894    5.8423863  -0.17967023  -0.17967023        47040 
  936500     1.005209    4.3326298    1.5077664    5.8403962  -0.10055223  -0.10055223        47040 
  937000    1.0042204    4.3402209    1.5062835    5.8465043 -0.075136176 -0.075136176        47040 
  937500    1.0040242    4.3419163    1.5059892    5.8479056  -0.09497791  -0.09497791        47040 
  938000    1.0010618    4.3455434    1.5015458    5.8470892  -0.12693823  -0.12693823        47040 
  938500    1.0037005    4.3466986    1.5055037    5.8522023   -0.1186752   -0.1186752        47040 
  939000    1.0051507     4.347319    1.5076789     5.854998  -0.10872123  -0.10872123        47040 
  939500   0.99603351    4.3405293    1.4940036    5.8345328 -0.077532261 -0.077532261        47040 
  940000   0.98868862    4.3480813    1.4829866    5.8310678 -0.083789406 -0.083789406        47040 
  940500   0.99679396    4.3394578    1.4951442     5.834602  -0.10105734  -0.10105734        47040 
  941000    1.0050222      4.33508    1.5074861    5.8425661 -0.093640371 -0.093640371        47040 
  941500    1.0029249    4.3458658    1.5043403    5.8502061 -0.024321234 -0.024321234        47040 
  942000    0.9959818    4.3512887     1.493926    5.8452147 -0.043107676 -0.043107676        47040 
  942500   0.99967327    4.3351131     1.499463    5.8345762  -0.10102804  -0.10102804        47040 
  943000    1.0018925    4.3395339    1.5027918    5.8423257 -0.089451432 -0.089451432        47040 
  943500    1.0015923     4.351656    1.5023415    5.8539975  -0.12268839  -0.12268839        47040 
  944000   0.99807713     4.364398    1.4970689    5.8614669  -0.13312885  -0.13312885        47040 
  944500   0.99355604    4.3603344    1.4902875    5.8506219  -0.17135134  -0.17135134        47040 
  945000   0.99386716    4.3534927    1.4907541    5.8442469  -0.14681838  -0.14681838        47040 
  945500    1.0015766    4.3474527     1.502318    5.8497707  -0.11811071  -0.11811071        47040 
  946000    1.0059743    4.3454984    1.5089143    5.8544127  -0.15638433  -0.15638433        47040 
  946500      1.00149    4.3403002     1.502188    5.8424882  -0.12760554  -0.12760554        47040 
  947000    1.0049874    4.3398796    1.5074339    5.8473136 -0.094571385 -0.094571385        47040 
  947500    1.0010516    4.3421999    1.5015305    5.8437304 -0.073873435 -0.073873435        47040 
  948000   0.99810887    4.3405223    1.4971165    5.8376388  -0.11483675  -0.11483675        47040 
  948500    1.0029316    4.3378971    1.5043504    5.8422475  -0.06951296  -0.06951296        47040 
  949000   0.99471634    4.3335432    1.4920279    5.8255711  -0.08272637  -0.08272637        47040 
  949500    1.0025324    4.3382602    1.5037517    5.8420118  -0.10822237  -0.10822237        47040 
  950000   0.99466446    4.3505992    1.4919501    5.8425492  -0.13857972  -0.13857972        47040 
  950500    1.0057344    4.3292097    1.5085544    5.8377641  -0.19203426  -0.19203426        47040 
  951000   0.99695753     4.337356    1.4953896    5.8327456  -0.07925915  -0.07925915        47040 
  951500   0.99941152    4.3347827    1.4990704    5.8338531  -0.10376249  -0.10376249        47040 
  952000     1.009976    4.3493023    1.5149166    5.8642189  -0.13075603  -0.13075603        47040 
  952500   0.99846424    4.3450837    1.4976496    5.8427332  -0.13564104  -0.13564104        47040 
  953000   0.99749419    4.3478323    1.4961945    5.8440268  -0.16567048  -0.16567048        47040 
  953500    1.0047902    4.3592878    1.5071382     5.866426  -0.12651873  -0.12651873        47040 
  954000    1.0063174    4.3568572    1.5094289    5.8662861  -0.10477652  -0.10477652        47040 
  954500    1.0033882    4.3475591    1.5050353    5.8525944  -0.11162426  -0.11162426        47040 
  955000   0.99471922     4.340238    1.4920322    5.8322702  0.010817177  0.010817177        47040 
  955500   0.99142155    4.3365634    1.4870859    5.8236493 -0.074967006 -0.074967006        47040 
  956000   0.99812202    4.3214953    1.4971362    5.8186315  -0.10006067  -0.10006067        47040 
  956500   0.99942817    4.3334594    1.4990954    5.8325548 -0.086612496 -0.086612496        47040 
  957000   0.99666377    4.3436428    1.4949489    5.8385917 -0.099239344 -0.099239344        47040 
  957500   0.99541319    4.3393992    1.4930731    5.8324723 -0.082565477 -0.082565477        47040 
  958000    0.9961627    4.3466865    1.4941974    5.8408839 -0.083691457 -0.083691457        47040 
  958500   0.99729193    4.3483278    1.4958912     5.844219 -0.081848415 -0.081848415        47040 
  959000   0.99680615    4.3425209    1.4951625    5.8376834  -0.13849206  -0.13849206        47040 
  959500    1.0057232    4.3364728    1.5085376    5.8450104  -0.10873958  -0.10873958        47040 
  960000    0.9988384    4.3338665    1.4982108    5.8320772 -0.072277507 -0.072277507        47040 
  960500    1.0042019    4.3305407    1.5062558    5.8367964  -0.10937761  -0.10937761        47040 
  961000    1.0108268      4.33729    1.5161928    5.8534828 -0.085854743 -0.085854743        47040 
  961500    1.0056378     4.342787    1.5084095    5.8511965  -0.10545021  -0.10545021        47040 
  962000   0.99704024    4.3530841    1.4955136    5.8485977  -0.14505836  -0.14505836        47040 
  962500   0.99804726    4.3464757    1.4970241    5.8434998  -0.10459392  -0.10459392        47040 
  963000    1.0031185    4.3375504    1.5046307    5.8421811  -0.12793997  -0.12793997        47040 
  963500    1.0039999    4.3414355    1.5059527    5.8473882  -0.09436593  -0.09436593        47040 
  964000    1.0054506    4.3268615    1.5081287    5.8349902 -0.071763413 -0.071763413        47040 
  964500   0.99485935     4.336039    1.4922424    5.8282814  -0.12553018  -0.12553018        47040 
  965000    0.9941417    4.3324232    1.4911659    5.8235891  -0.16112443  -0.16112443        47040 
  965500    1.0005958    4.3346405    1.5008469    5.8354873  -0.11399319  -0.11399319        47040 
  966000   0.99555189    4.3400119    1.4932812    5.8332931  -0.16126851  -0.16126851        47040 
  966500   0.99479538    4.3450355    1.4921464     5.837182  -0.10518599  -0.10518599        47040 
  967000    0.9968782    4.3399192    1.4952706    5.8351897  -0.17047671  -0.17047671        47040 
  967500    1.0020939    4.3393442    1.5030939     5.842438 -0.048149818 -0.048149818        47040 
  968000    1.0050565    4.3329955    1.5075376    5.8405331 -0.060582003 -0.060582003        47040 
  968500    1.0089807    4.3424577    1.5134238    5.8558815 -0.071479438 -0.071479438        47040 
  969000    1.0006739    4.3389264     1.500964    5.8398904 -0.069899378 -0.069899378        47040 
  969500   0.99684758    4.3369292    1.4952246    5.8321539 -0.077666274 -0.077666274        47040 
  970000    1.0051259    4.3329226    1.5076418    5.8405643 -0.095223832 -0.095223832        47040 
  970500    1.0011788    4.3453252    1.5017212    5.8470465 -0.060608506 -0.060608506        47040 
  971000    1.0027264    4.3314839    1.5040425    5.8355264 -0.055014948 -0.055014948        47040 
  971500    1.0018566    4.3395803    1.5027379    5.8423182  -0.09481933  -0.09481933        47040 
  972000   0.99775894    4.3386487    1.4965916    5.8352403  -0.08547092  -0.08547092        47040 
  972500    1.0033689    4.3305817    1.5050063     5.835588  -0.15950923  -0.15950923        47040 
  973000   0.99937215    4.3379518    1.4990114    5.8369632  -0.10146869  -0.10146869        47040 
  973500    0.9986041    4.3430904    1.4978593    5.8409497 -0.031087201 -0.031087201        47040 
  974000    1.0024193    4.3307396     1.503582    5.8343216  -0.10267489  -0.10267489        47040 
  974500    1.0000704    4.3311116    1.5000587    5.8311703 -0.089810507 -0.089810507        47040 
  975000    1.0070374    4.3331819    1.5105089    5.8436908 -0.088873508 -0.088873508        47040 
  975500   0.99317532    4.3459862    1.4897164    5.8357026 -0.087658066 -0.087658066        47040 
  976000     1.003109      4.32728    1.5046165    5.8318965 -0.071123453 -0.071123453        47040 
  976500    1.0004594    4.3260103    1.5006422    5.8266525 -0.088311274 -0.088311274        47040 
  977000    1.0037779    4.3399326    1.5056198    5.8455525 -0.063649148 -0.063649148        47040 
  977500    1.0049556    4.3409666    1.5073863    5.8483529 -0.095836953 -0.095836953        47040 
  978000    1.0004637    4.3612669    1.5006487    5.8619155 -0.095674873 -0.095674873        47040 
  978500   0.99653425    4.3590607    1.4947547    5.8538154  -0.12964156  -0.12964156        47040 
  979000    1.0001338    4.3275784    1.5001538    5.8277322  -0.10046967  -0.10046967        47040 
  979500    1.0104431    4.3363488    1.5156172    5.8519661 -0.072379496 -0.072379496        47040 
  980000    1.0033054    4.3416311    1.5049111    5.8465422 -0.054304873 -0.054304873        47040 
  980500    1.0019175    4.3452047    1.5028293     5.848034  -0.03726835  -0.03726835        47040 
  981000    1.0109645    4.3335769    1.5163994    5.8499763  -0.14177436  -0.14177436        47040 
  981500   0.99873194    4.3404378    1.4980511    5.8384889  -0.15206284  -0.15206284        47040 
  982000   0.99735569    4.3361478    1.4959868    5.8321346 -0.079686564 -0.079686564        47040 
  982500   0.99501571    4.3334343    1.4924769    5.8259112  -0.11619105  -0.11619105        47040 
  983000   0.99352694    4.3364438    1.4902438    5.8266877 -0.094898545 -0.094898545        47040 
  983500    1.0009875     4.341836    1.5014344    5.8432704 -0.060384268 -0.060384268        47040 
  984000   0.99826547     4.347059    1.4973514    5.8444104 -0.071556253 -0.071556253        47040 
  984500    1.0017444    4.3293319    1.5025696    5.8319014  -0.12018242  -0.12018242        47040 
  985000   0.99970666    4.3241822    1.4995131    5.8236954 -0.050461646 -0.050461646        47040 
  985500    1.0080977    4.3230369    1.5120993    5.8351363  -0.11229332  -0.11229332        47040 
  986000   0.99397552     4.326877    1.4909167    5.8177937 0.0077025329 0.0077025329        47040 
  986500   0.99533066    4.3252647    1.4929493     5.818214  -0.16146135  -0.16146135        47040 
  987000   0.99483064    4.3346702    1.4921993    5.8268696 -0.065873386 -0.065873386        47040 
  987500   0.99911658    4.3344352     1.498628    5.8330632   -0.1047681   -0.1047681        47040 
  988000   0.99769039    4.3352426    1.4964888    5.8317314  -0.13372435  -0.13372435        47040 
  988500    1.0042389    4.3344412    1.5063113    5.8407525  -0.10311186  -0.10311186        47040 
  989000    1.0015505    4.3426812    1.5022788      5.84496 -0.065188145 -0.065188145        47040 
  989500   0.99988564    4.3446404    1.4997816     5.844422 -0.096095479 -0.096095479        47040 
  990000    1.0019899     4.344218    1.5029379    5.8471559 -0.099293258 -0.099293258        47040 
  990500   0.99768999    4.3497229    1.4964882    5.8462111  -0.14492975  -0.14492975        47040 
  991000   0.99781761    4.3398741    1.4966796    5.8365538 -0.084329023 -0.084329023        47040 
  991500    1.0007713    4.3374019      1.50111    5.8385119 -0.065231017 -0.065231017        47040 
  992000    1.0032643    4.3350437    1.5048495    5.8398932 -0.089540275 -0.089540275        47040 
  992500   0.99423718    4.3444763    1.4913092    5.8357854 -0.072931682 -0.072931682        47040 
  993000   0.99826337    4.3289078    1.4973483    5.8262561  -0.14148283  -0.14148283        47040 
  993500    1.0019462    4.3384703    1.5028724    5.8413427  -0.11596366  -0.11596366        47040 
  994000   0.99833946    4.3511687    1.4974624    5.8486311 -0.063189129 -0.063189129        47040 
  994500    1.0036937    4.3503719    1.5054935    5.8558653 -0.070730492 -0.070730492        47040 
  995000    1.0009856    4.3558791    1.5014314    5.8573105 -0.084162854 -0.084162854        47040 
  995500   0.99740561    4.3465489    1.4960617    5.8426105  -0.10140797  -0.10140797        47040 
  996000   0.99657665    4.3359125    1.4948183    5.8307308  -0.13196042  -0.13196042        47040 
  996500   0.99526422    4.3377797    1.4928497    5.8306294 -0.072933607 -0.072933607        47040 
  997000   0.99430764     4.327457    1.4914149    5.8188719  -0.04531507  -0.04531507        47040 
  997500    0.9946233    4.3253371    1.4918883    5.8172254  -0.08462553  -0.08462553        47040 
  998000   0.99558369    4.3293152    1.4933289     5.822644 -0.050940337 -0.050940337        47040 
  998500     1.001397    4.3254913    1.5020486    5.8275399  -0.13092215  -0.13092215        47040 
  999000   0.99791523    4.3382173    1.4968261    5.8350434 -0.081388839 -0.081388839        47040 
  999500    1.0017636    4.3472438    1.5025984    5.8498422 -0.031878891 -0.031878891        47040 
 1000000    1.0066634    4.3316418     1.509948    5.8415898  -0.12497812  -0.12497812        47040 
 1000500   0.99806597    4.3307407    1.4970522    5.8277929  -0.14654431  -0.14654431        47040 
 1001000   0.99716838    4.3370581    1.4957058    5.8327639 -0.099944816 -0.099944816        47040 
 1001500    1.0039808    4.3308322    1.5059241    5.8367563   -0.1002548   -0.1002548        47040 
 1002000    1.0025176    4.3175972    1.5037294    5.8213266 -0.084183395 -0.084183395        47040 
 1002500   0.99076715    4.3340918    1.4861043     5.820196  -0.12622707  -0.12622707        47040 
 1003000   0.99780439    4.3411067    1.4966598    5.8377665 -0.095200725 -0.095200725        47040 
 1003500   0.99973175    4.3436519    1.4995508    5.8432027 -0.085876965 -0.085876965        47040 
 1004000   0.99681458    4.3488843    1.4951751    5.8440595  -0.10421291  -0.10421291        47040 
 1004500    1.0036753    4.3494866     1.505466    5.8549526  -0.18127737  -0.18127737        47040 
 1005000   0.99184458    4.3470772    1.4877204    5.8347976 -0.086956235 -0.086956235        47040 
 1005500   0.99674007    4.3346194    1.4950634    5.8296828 -0.078698668 -0.078698668        47040 
 1006000    1.0007589    4.3403385    1.5010915      5.84143  -0.11165502  -0.11165502        47040 
 1006500    1.0067077     4.331714    1.5100143    5.8417283  -0.15752416  -0.15752416        47040 
 1007000    1.0091333    4.3399955    1.5136526    5.8536482  -0.10244811  -0.10244811        47040 
 1007500   0.99695169     4.365064    1.4953808    5.8604448 -0.092303311 -0.092303311        47040 
 1008000   0.99254019    4.3441193    1.4887638     5.832883 -0.096701197 -0.096701197        47040 
 1008500   0.99583958      4.33798    1.4937127    5.8316927 -0.077208205 -0.077208205        47040 
 1009000   0.99610813    4.3437017    1.4941155    5.8378172 -0.043551612 -0.043551612        47040 
 1009500    1.0013796    4.3390186    1.5020224     5.841041 -0.068395596 -0.068395596        47040 
 1010000   0.99758414    4.3275444    1.4963294    5.8238738  -0.14532363  -0.14532363        47040 
 1010500   0.99582742    4.3397512    1.4936945    5.8334457  -0.10033129  -0.10033129        47040 
 1011000   0.99569143    4.3397196    1.4934905      5.83321 -0.096221567 -0.096221567        47040 
 1011500    1.0111163    4.3372529    1.5166271      5.85388  -0.13233435  -0.13233435        47040 
 1012000    1.0000555      4.34857    1.5000363    5.8486064  -0.11360605  -0.11360605        47040 
 1012500    1.0021727    4.3501202     1.503212    5.8533322  -0.13615273  -0.13615273        47040 
 1013000    0.9999245    4.3370694    1.4998399    5.8369093  -0.12706739  -0.12706739        47040 
 1013500    0.9988736    4.3337608    1.4982636    5.8320244   -0.1043068   -0.1043068        47040 
 1014000   0.99863322    4.3321698     1.497903    5.8300728 -0.083419266 -0.083419266        47040 
 1014500   0.99708377    4.3270437    1.4955789    5.8226226  -0.11770364  -0.11770364        47040 
 1015000    1.0029111    4.3282913    1.5043197     5.832611  -0.15339975  -0.15339975        47040 
 1015500    1.0044157    4.3285573    1.5065765    5.8351338  -0.13213195  -0.13213195        47040 
 1016000   0.99904214    4.3424631    1.4985164    5.8409795 -0.034689462 -0.034689462        47040 
 1016500   0.99957281     4.334758    1.4993124    5.8340704  -0.05977042  -0.05977042        47040 
 1017000    1.0006556    4.3274638    1.5009365    5.8284003 -0.080333609 -0.080333609        47040 
 1017500    1.0054544    4.3354254    1.5081344    5.8435598 -0.058397469 -0.058397469        47040 
 1018000    1.0032008    4.3527566    1.5047542    5.8575108 -0.091832771 -0.091832771        47040 
 1018500    1.0018475    4.3470494    1.5027242    5.8497737 -0.098871717 -0.098871717        47040 
 1019000     1.004314    4.3385768    1.5064239    5.8450008  -0.12826641  -0.12826641        47040 
 1019500    1.0017523    4.3434005    1.5025816    5.8459821  -0.12598957  -0.12598957        47040 
 1020000   0.99505891    4.3506165    1.4925417    5.8431582  -0.10680126  -0.10680126        47040 
 1020500    1.0027663    4.3349899    1.5041025    5.8390924  -0.15539203  -0.15539203        47040 
 1021000    0.9994285    4.3394156    1.4990959    5.8385115  -0.08504282  -0.08504282        47040 
 1021500     1.001959    4.3399262    1.5028916    5.8428177 -0.056837785 -0.056837785        47040 
 1022000    1.0058826    4.3414871    1.5087767    5.8502638  -0.07304101  -0.07304101        47040 
 1022500   0.99725775    4.3361246    1.4958399    5.8319645  -0.03508883  -0.03508883        47040 
 1023000   0.99639645    4.3413813     1.494548    5.8359292 -0.069599291 -0.069599291        47040 
 1023500   0.99336486    4.3422523    1.4900007     5.832253  -0.14423319  -0.14423319        47040 
 1024000   0.99865532    4.3330605    1.4979362    5.8309967  -0.12371484  -0.12371484        47040 
 1024500    1.0115259    4.3367391    1.5172415    5.8539806 -0.061547868 -0.061547868        47040 
 1025000    1.0090511    4.3343299    1.5135294    5.8478593   -0.0824979   -0.0824979        47040 
 1025500    1.0022833    4.3353653     1.503378    5.8387433 -0.088768357 -0.088768357        47040 
 1026000   0.99341482    4.3440606    1.4900757    5.8341363  -0.12476664  -0.12476664        47040 
 1026500   0.99872765    4.3328664    1.4980447     5.830911 -0.098059637 -0.098059637        47040 
 1027000    0.9945426    4.3365515    1.4917673    5.8283188 -0.093847866 -0.093847866        47040 
 1027500   0.99712917    4.3268901     1.495647    5.8225371  -0.13024055  -0.13024055        47040 
 1028000   0.99988225    4.3466157    1.4997765    5.8463922  -0.10767633  -0.10767633        47040 
 1028500    1.0036264    4.3366499    1.5053926    5.8420425   -0.1050853   -0.1050853        47040 
 1029000    1.0043941    4.3350381    1.5065441    5.8415822  -0.13150956  -0.13150956        47040 
 1029500   0.99951771    4.3322901    1.4992297    5.8315198  -0.10762326  -0.10762326        47040 
 1030000   0.99317763    4.3350444    1.4897199    5.8247643 -0.094738838 -0.094738838        47040 
 1030500   0.99467641    4.3231948     1.491968    5.8151628 -0.084160227 -0.084160227        47040 
 1031000   0.99432409    4.3208495    1.4914395     5.812289 -0.065668938 -0.065668938        47040 
 1031500   0.99761531    4.3177605    1.4963762    5.8141367 -0.080851017 -0.080851017        47040 
 1032000    1.0028708    4.3166441    1.5042592    5.8209033  -0.14457687  -0.14457687        47040 
 1032500    0.9923793    4.3395857    1.4885224    5.8281081   -0.0772042   -0.0772042        47040 
 1033000    1.0002438    4.3388132    1.5003188     5.839132  -0.14244199  -0.14244199        47040 
 1033500   0.99208241    4.3532479    1.4880771     5.841325 -0.058687707 -0.058687707        47040 
 1034000    1.0039485    4.3333997    1.5058756    5.8392753  -0.11448584  -0.11448584        47040 
 1034500    1.0059991    4.3372821    1.5089516    5.8462337  -0.13232146  -0.13232146        47040 
 1035000    1.0049245    4.3517958    1.5073396    5.8591354  -0.11775355  -0.11775355        47040 
 1035500     1.004211     4.353334    1.5062695    5.8596034  -0.10358271  -0.10358271        47040 
 1036000    1.0008143    4.3483073    1.5011745    5.8494818 -0.046636558 -0.046636558        47040 
 1036500   0.99974993    4.3512011     1.499578    5.8507791 -0.094537418 -0.094537418        47040 
 1037000   0.99290983    4.3322248    1.4893182     5.821543  -0.13735441  -0.13735441        47040 
 1037500   0.98923369     4.333628    1.4838042    5.8174321 -0.037794957 -0.037794957        47040 
 1038000   0.98809075    4.3298864    1.4820898    5.8119762 -0.098003267 -0.098003267        47040 
 1038500   0.99856157    4.3252164    1.4977956     5.823012  -0.14898318  -0.14898318        47040 
 1039000    1.0021908    4.3260483    1.5032392    5.8292875  -0.12248549  -0.12248549        47040 
 1039500    1.0007514    4.3306284    1.5010802    5.8317086 -0.083576981 -0.083576981        47040 
 1040000     1.000396    4.3370015    1.5005471    5.8375485 -0.058137486 -0.058137486        47040 
 1040500    0.9948444    4.3417201      1.49222    5.8339401   -0.1062264   -0.1062264        47040 
 1041000   0.99054681    4.3410509    1.4857738    5.8268246 -0.051760507 -0.051760507        47040 
 1041500   0.99518429     4.337994    1.4927298    5.8307238  -0.06420178  -0.06420178        47040 
 1042000   0.99129465    4.3493579    1.4868955    5.8362534 -0.079984851 -0.079984851        47040 
 1042500    0.9896635    4.3451764    1.4844489    5.8296253  -0.12682315  -0.12682315        47040 
 1043000   0.99211821    4.3414349    1.4881308    5.8295657  -0.10339411  -0.10339411        47040 
 1043500   0.99627067     4.346267    1.4943593    5.8406263  -0.11578429  -0.11578429        47040 
 1044000    1.0013818    4.3471182    1.5020257    5.8491439 -0.066416798 -0.066416798        47040 
 1044500    1.0062861     4.334753    1.5093819    5.8441349  -0.16168257  -0.16168257        47040 
 1045000     1.002673    4.3448177    1.5039624    5.8487801 -0.091026836 -0.091026836        47040 
 1045500   0.99647301    4.3420463    1.4946628    5.8367092  -0.11350105  -0.11350105        47040 
 1046000   0.99607635    4.3476741    1.4940678    5.8417419  -0.16496952  -0.16496952        47040 
 1046500   0.99449943    4.3523649    1.4917025    5.8440674 -0.087281454 -0.087281454        47040 
 1047000    0.9972091    4.3543361    1.4957669     5.850103  -0.14159809  -0.14159809        47040 
 1047500   0.99191083    4.3498269    1.4878198    5.8376467  -0.14868483  -0.14868483        47040 
 1048000   0.99448153    4.3521511    1.4916757    5.8438268  -0.10568863  -0.10568863        47040 
 1048500   0.99890373    4.3402457    1.4983088    5.8385544 -0.081082849 -0.081082849        47040 
 1049000    1.0005867    4.3312459    1.5008332    5.8320791 -0.092753034 -0.092753034        47040 
 1049500   0.99158571    4.3414256    1.4873321    5.8287577 -0.074260882 -0.074260882        47040 
 1050000   0.99890672     4.338633    1.4983132    5.8369462  -0.11911843  -0.11911843        47040 
 1050500     1.001476    4.3272367    1.5021671    5.8294038  -0.12478002  -0.12478002        47040 
 1051000   0.99476406     4.341245    1.4920995    5.8333444 -0.069548464 -0.069548464        47040 
 1051500    1.0025546    4.3286168    1.5037849    5.8324016   -0.1199808   -0.1199808        47040 
 1052000    1.0044354    4.3432135     1.506606    5.8498196 -0.081849703 -0.081849703        47040 
 1052500    1.0089639    4.3461466    1.5133985    5.8595451 -0.069802978 -0.069802978        47040 
 1053000    1.0042331    4.3332042    1.5063026    5.8395068 -0.069509519 -0.069509519        47040 
 1053500   0.99745876    4.3378434    1.4961414    5.8339848  -0.10427921  -0.10427921        47040 
 1054000   0.99744194    4.3444917    1.4961162    5.8406078 -0.077816353 -0.077816353        47040 
 1054500   0.99683829    4.3441021    1.4952107    5.8393128 -0.091468891 -0.091468891        47040 
 1055000    1.0031917    4.3413764    1.5047406     5.846117 -0.053034844 -0.053034844        47040 
 1055500    1.0064735    4.3494139    1.5096631     5.859077 -0.098242457 -0.098242457        47040 
 1056000    1.0012678     4.351646    1.5018548    5.8535007  -0.14069631  -0.14069631        47040 
 1056500   0.99933671    4.3473675    1.4989582    5.8463257  -0.16034807  -0.16034807        47040 
 1057000   0.99621416     4.354472    1.4942745    5.8487465  -0.13699132  -0.13699132        47040 
 1057500   0.99814527    4.3405166    1.4971711    5.8376877  -0.11769775  -0.11769775        47040 
 1058000   0.99738677    4.3503304    1.4960334    5.8463638 -0.063554852 -0.063554852        47040 
 1058500    1.0003721    4.3429291    1.5005112    5.8434404 -0.079134491 -0.079134491        47040 
 1059000   0.99982322    4.3282637     1.499688    5.8279517 -0.078144036 -0.078144036        47040 
 1059500   0.99262074    4.3306454    1.4888846      5.81953  -0.08087132  -0.08087132        47040 
 1060000   0.99893438    4.3370684    1.4983547    5.8354232  -0.10714407  -0.10714407        47040 
 1060500      0.99626     4.344526    1.4943433    5.8388693  -0.15368208  -0.15368208        47040 
 1061000   0.99346633    4.3466161    1.4901529     5.836769  -0.14512056  -0.14512056        47040 
 1061500   0.99892087    4.3499418    1.4983345    5.8482762  -0.14281834  -0.14281834        47040 
 1062000   0.99753869    4.3565662    1.4962613    5.8528275 -0.095276968 -0.095276968        47040 
 1062500   0.99997356      4.35132    1.4999135    5.8512335  -0.09452256  -0.09452256        47040 
 1063000    0.9887661    4.3251564    1.4831028    5.8082592  -0.13763928  -0.13763928        47040 
 1063500   0.99453799    4.3193414    1.4917604    5.8111018   -0.1059927   -0.1059927        47040 
 1064000    0.9989679    4.3219481     1.498405    5.8203532 -0.096733646 -0.096733646        47040 
 1064500    1.0000108    4.3297636    1.4999693    5.8297328  -0.10802423  -0.10802423        47040 
 1065000    1.0046521    4.3421338    1.5069311    5.8490649  -0.07761125  -0.07761125        47040 
 1065500    1.0123804    4.3288599    1.5185232    5.8473831 -0.031584738 -0.031584738        47040 
 1066000    1.0000838    4.3437036    1.5000788    5.8437824 -0.057738106 -0.057738106        47040 
 1066500    1.0029452    4.3293063    1.5043707     5.833677 -0.062901371 -0.062901371        47040 
 1067000   0.99753947    4.3347285    1.4962624    5.8309909 -0.081509515 -0.081509515        47040 
 1067500    1.0047083    4.3308967    1.5070154    5.8379121  -0.10294249  -0.10294249        47040 
 1068000   0.99957961    4.3405493    1.4993226    5.8398719 -0.097445075 -0.097445075        47040 
 1068500    1.0077987    4.3420355    1.5116508    5.8536862 -0.049385838 -0.049385838        47040 
 1069000    1.0030911    4.3423199    1.5045896    5.8469095 -0.064989418 -0.064989418        47040 
 1069500    1.0017064      4.33858    1.5025127    5.8410926  -0.12692965  -0.12692965        47040 
 1070000   0.99770936    4.3398318    1.4965173    5.8363491 -0.077561363 -0.077561363        47040 
 1070500    1.0012052    4.3374729    1.5017609    5.8392339 -0.099255683 -0.099255683        47040 
 1071000    1.0008674    4.3456757    1.5012542    5.8469299  -0.12203932  -0.12203932        47040 
 1071500    1.0021725    4.3590718    1.5032118    5.8622836   -0.1409134   -0.1409134        47040 
 1072000   0.99842411    4.3470452    1.4975894    5.8446345  -0.12558682  -0.12558682        47040 
 1072500   0.99821208    4.3521279    1.4972713    5.8493992 -0.080353797 -0.080353797        47040 
 1073000    1.0056471    4.3500469    1.5084235    5.8584705 -0.089976001 -0.089976001        47040 
 1073500    1.0008818    4.3229828    1.5012758    5.8242585 -0.060071431 -0.060071431        47040 
 1074000    1.0020566     4.323549     1.503038     5.826587  -0.12334804  -0.12334804        47040 
 1074500    1.0101795    4.3238844    1.5152218    5.8391062 -0.090786506 -0.090786506        47040 
 1075000    1.0081623    4.3304593    1.5121962    5.8426555  -0.13372814  -0.13372814        47040 
 1075500    1.0010812    4.3183081    1.5015748     5.819883  -0.13466914  -0.13466914        47040 
 1076000     1.001973    4.3277106    1.5029126    5.8306231  -0.14828226  -0.14828226        47040 
 1076500   0.99719491     4.320906    1.4957456    5.8166517  -0.14439105  -0.14439105        47040 
 1077000   0.99971654    4.3372708     1.499528    5.8367988 -0.066241543 -0.066241543        47040 
 1077500    1.0011438    4.3312065    1.5016688    5.8328754  -0.12205487  -0.12205487        47040 
 1078000   0.99994154    4.3474752    1.4998654    5.8473406  -0.13442815  -0.13442815        47040 
 1078500    1.0089138    4.3546983    1.5133234    5.8680217  -0.12678261  -0.12678261        47040 
 1079000   0.99572317    4.3526419    1.4935381      5.84618  -0.15714866  -0.15714866        47040 
 1079500   0.99787441    4.3568932    1.4967648     5.853658  -0.10967996  -0.10967996        47040 
 1080000    1.0057378    4.3496882    1.5085595    5.8582477  -0.17856674  -0.17856674        47040 
 1080500   0.99998437    4.3490656    1.4999297    5.8489953  -0.10595406  -0.10595406        47040 
 1081000    1.0014615    4.3408971    1.5021454    5.8430424 -0.071433191 -0.071433191        47040 
 1081500    1.0068606    4.3389113    1.5102437     5.849155  -0.10789626  -0.10789626        47040 
 1082000    0.9950674    4.3260648    1.4925545    5.8186192  -0.13321078  -0.13321078        47040 
 1082500    0.9976265    4.3288292     1.496393    5.8252221 -0.081797474 -0.081797474        47040 
 1083000    1.0029922    4.3274294    1.5044412    5.8318706 -0.051910115 -0.051910115        47040 
 1083500    1.0075387    4.3314241    1.5112608    5.8426849 -0.051351583 -0.051351583        47040 
 1084000    1.0019893    4.3372597     1.502937    5.8401967 -0.049905984 -0.049905984        47040 
 1084500   0.99841507    4.3215887    1.4975758    5.8191645 -0.072785986 -0.072785986        47040 
 1085000    1.0039872    4.3155844    1.5059337    5.8215181 -0.065635876 -0.065635876        47040 
 1085500   0.99789104    4.3275842    1.4967898    5.8243739 -0.079011357 -0.079011357        47040 
 1086000    1.0026583    4.3200773    1.5039404    5.8240177 -0.054189686 -0.054189686        47040 
 1086500   0.99845407     4.328399    1.4976343    5.8260333  -0.12690522  -0.12690522        47040 
 1087000    1.0004481    4.3320969    1.5006253    5.8327222  -0.11623619  -0.11623619        47040 
 1087500   0.99821686    4.3499682    1.4972785    5.8472467  -0.11067027  -0.11067027        47040 
 1088000    1.0001178    4.3569135    1.5001298    5.8570434  -0.11212677  -0.11212677        47040 
 1088500      1.01072     4.359896    1.5160327    5.8759286 -0.088563551 -0.088563551        47040 
 1089000   0.99401896    4.3417958    1.4909818    5.8327776   -0.1042602   -0.1042602        47040 
 1089500   0.99771361    4.3290825    1.4965236    5.8256062 -0.054059201 -0.054059201        47040 
 1090000    1.0063994    4.3345466    1.5095519    5.8440984 -0.039083156 -0.039083156        47040 
 1090500    1.0136393    4.3254717    1.5204114    5.8458831 -0.083585897 -0.083585897        47040 
 1091000   0.99667404    4.3323688    1.4949643    5.8273332  -0.11156551  -0.11156551        47040 
 1091500     1.002465    4.3233745    1.5036505     5.827025  -0.16512292  -0.16512292        47040 
 1092000   0.99769723    4.3418335    1.4964991    5.8383326   -0.1351419   -0.1351419        47040 
 1092500   0.98914158     4.341461     1.483666     5.825127  -0.17778607  -0.17778607        47040 
 1093000   0.99494006    4.3392816    1.4923635     5.831645 -0.083851402 -0.083851402        47040 
 1093500   0.99923347    4.3414386    1.4988034     5.840242 -0.088392253 -0.088392253        47040 
 1094000    1.0093761    4.3453181    1.5140168    5.8593349  -0.02097805  -0.02097805        47040 
 1094500    1.0032173    4.3420505     1.504779    5.8468294 -0.096762249 -0.096762249        47040 
 1095000    1.0013115     4.335612    1.5019203    5.8375323  -0.07543842  -0.07543842        47040 
 1095500   0.99463381     4.337691    1.4919041    5.8295951 -0.092417571 -0.092417571        47040 
 1096000   0.99435536    4.3513164    1.4914864    5.8428028 -0.053255886 -0.053255886        47040 
 1096500    0.9990281    4.3448046    1.4984953    5.8432999 -0.099004576 -0.099004576        47040 
 1097000    1.0017067    4.3423645    1.5025132    5.8448776 -0.097941029 -0.097941029        47040 
 1097500    1.0000899    4.3372926    1.5000879    5.8373805 -0.049757901 -0.049757901        47040 
 1098000   0.99987359    4.3378993    1.4997635    5.8376628 -0.058798485 -0.058798485        47040 
 1098500   0.99654305    4.3368409    1.4947679    5.8316088  -0.12035014  -0.12035014        47040 
 1099000    1.0046738    4.3411154    1.5069636    5.8480791 -0.066685418 -0.066685418        47040 
 1099500    1.0039701     4.342527    1.5059082    5.8484352  -0.10336869  -0.10336869        47040 
 1100000    1.0052217    4.3298889    1.5077854    5.8376743 -0.083406494 -0.083406494        47040 
 1100500    1.0063372    4.3318626    1.5094587    5.8413213  -0.09827859  -0.09827859        47040 
 1101000   0.98965276    4.3476988    1.4844327    5.8321315 -0.036926889 -0.036926889        47040 
 1101500    1.0022042    4.3252648    1.5032593    5.8285241 -0.063833431 -0.063833431        47040 
 1102000    1.0010408    4.3305697    1.5015143     5.832084 -0.074195422 -0.074195422        47040 
 1102500    1.0050795    4.3446533    1.5075722    5.8522255 -0.071242721 -0.071242721        47040 
 1103000    1.0047028    4.3417727    1.5070071    5.8487798  -0.10305309  -0.10305309        47040 
 1103500   0.99477632    4.3316747    1.4921178    5.8237925  -0.11266382  -0.11266382        47040 
 1104000    1.0008766    4.3266692     1.501268    5.8279372  -0.08722139  -0.08722139        47040 
 1104500   0.99611073     4.340003    1.4941194    5.8341224 -0.034113453 -0.034113453        47040 
 1105000    1.0036264    4.3335622    1.5053925    5.8389548  -0.13430546  -0.13430546        47040 
 1105500   0.99893273    4.3354199    1.4983523    5.8337721  -0.14705147  -0.14705147        47040 
 1106000   0.99242949    4.3466007    1.4885977    5.8351984 -0.091067799 -0.091067799        47040 
 1106500   0.99716726    4.3462309    1.4957041    5.8419351  -0.17173592  -0.17173592        47040 
 1107000      1.00205    4.3373789    1.5030281     5.840407  -0.11513652  -0.11513652        47040 
 1107500    1.0012003    4.3447388    1.5017535    5.8464922  -0.12061744  -0.12061744        47040 
 1108000    1.0012732    4.3433941    1.5018629     5.845257 -0.087590683 -0.087590683        47040 
 1108500   0.99821285    4.3464869    1.4972725    5.8437593  -0.10230903  -0.10230903        47040 
 1109000   0.99553453    4.3404425    1.4932551    5.8336976 -0.095048193 -0.095048193        47040 
 1109500    1.0033477    4.3193743    1.5049745    5.8243489  -0.10965846  -0.10965846        47040 
 1110000   0.99615607    4.3370118    1.4941874    5.8311993  -0.11664101  -0.11664101        47040 
 1110500   0.99518342     4.333989    1.4927285    5.8267175 -0.046187979 -0.046187979        47040 
 1111000   0.99861877     4.322095    1.4978813    5.8199763 -0.073287877 -0.073287877        47040 
 1111500   0.99810548     4.330915    1.4971114    5.8280265  -0.10801039  -0.10801039        47040 
 1112000   0.99285311    4.3430428    1.4892331    5.8322759  -0.10021898  -0.10021898        47040 
 1112500   0.99616393    4.3369832    1.4941992    5.8311824  -0.17459276  -0.17459276        47040 
 1113000    1.0054316    4.3291036    1.5081003    5.8372039  -0.13750748  -0.13750748        47040 
 1113500   0.98708305    4.3425641    1.4805783    5.8231424  -0.11380805  -0.11380805        47040 
 1114000   0.99754657    4.3399209    1.4962731     5.836194  -0.12649769  -0.12649769        47040 
 1114500   0.99745233    4.3363304    1.4961317    5.8324621  -0.12266986  -0.12266986        47040 
 1115000    1.0017487    4.3417534    1.5025761    5.8443295 -0.075144222 -0.075144222        47040 
 1115500     1.003893    4.3474772    1.5057924    5.8532697  -0.10721016  -0.10721016        47040 
 1116000    1.0048426    4.3376882    1.5072168     5.844905 -0.086903684 -0.086903684        47040 
 1116500    1.0023328    4.3406047    1.5034522    5.8440568  -0.10203435  -0.10203435        47040 
 1117000    1.0007485    4.3454257    1.5010759    5.8465016  -0.12463134  -0.12463134        47040 
 1117500    1.0038948    4.3403606    1.5057952    5.8461558 -0.080436339 -0.080436339        47040 
 1118000     1.003879     4.346716    1.5057715    5.8524875 -0.095945415 -0.095945415        47040 
 1118500    1.0033508    4.3439111    1.5049792    5.8488904  -0.06253461  -0.06253461        47040 
 1119000   0.99717448    4.3419288     1.495715    5.8376437  -0.10367864  -0.10367864        47040 
 1119500     1.002118    4.3308822    1.5031301    5.8340123  -0.10442504  -0.10442504        47040 
 1120000   0.99563605    4.3536297    1.4934074    5.8470371  -0.11688019  -0.11688019        47040 
 1120500    1.0052002    4.3360221    1.5077532    5.8437752    -0.147877    -0.147877        47040 
 1121000    1.0030443     4.348907    1.5045195    5.8534265 -0.064900915 -0.064900915        47040 
 1121500    1.0089593    4.3378565    1.5133916    5.8512481 -0.064852796 -0.064852796        47040 
 1122000   0.99810167    4.3380958    1.4971057    5.8352016 -0.081837728 -0.081837728        47040 
 1122500   0.99726171    4.3365216    1.4958458    5.8323674 -0.074244489 -0.074244489        47040 
 1123000   0.99875234    4.3326257    1.4980817    5.8307074  -0.14058332  -0.14058332        47040 
 1123500   0.99095213    4.3411171    1.4863817    5.8274988  -0.13602418  -0.13602418        47040 
 1124000   0.99920075    4.3353265    1.4987543    5.8340808 -0.075541492 -0.075541492        47040 
 1124500    1.0020569    4.3403722    1.5030384    5.8434107  -0.10721116  -0.10721116        47040 
 1125000     1.000472    4.3443977    1.5006611    5.8450588 -0.050369319 -0.050369319        47040 
 1125500   0.99640924    4.3436555    1.4945672    5.8382227  -0.10689638  -0.10689638        47040 
 1126000     1.006724    4.3461977    1.5100388    5.8562365 -0.043969854 -0.043969854        47040 
 1126500    1.0022747    4.3449833    1.5033651    5.8483484  -0.12504861  -0.12504861        47040 
 1127000   0.99834947    4.3440186    1.4974774     5.841496 -0.090211344 -0.090211344        47040 
 1127500    1.0006099    4.3276345    1.5008679    5.8285024 -0.0069894619 -0.0069894619        47040 
 1128000    0.9943148    4.3306807    1.4914256    5.8221063  -0.15054312  -0.15054312        47040 
 1128500    1.0006396    4.3250282    1.5009125    5.8259407 -0.064194325 -0.064194325        47040 
 1129000    1.0020869    4.3456678    1.5030833    5.8487512 -0.056036068 -0.056036068        47040 
 1129500   0.99834206    4.3462801    1.4974663    5.8437463  -0.10423515  -0.10423515        47040 
 1130000    0.9972083     4.348223    1.4957657    5.8439887  -0.11706103  -0.11706103        47040 
 1130500   0.98880192    4.3618874    1.4831565    5.8450439  -0.11938393  -0.11938393        47040 
 1131000   0.99045804    4.3532151    1.4856406    5.8388557  -0.13462951  -0.13462951        47040 
 1131500    1.0024886    4.3380696    1.5036859    5.8417555  -0.12793131  -0.12793131        47040 
 1132000   0.98974416     4.330418    1.4845699    5.8149878 -0.085482242 -0.085482242        47040 
 1132500   0.99898585    4.3293075    1.4984319    5.8277394 -0.043564781 -0.043564781        47040 
 1133000   0.99749424    4.3262974    1.4961946     5.822492 -0.089833075 -0.089833075        47040 
 1133500    1.0039717    4.3256886    1.5059105    5.8315991  -0.11784332  -0.11784332        47040 
 1134000    1.0007677    4.3309441    1.5011047    5.8320487  -0.10932132  -0.10932132        47040 
 1134500    1.0035895    4.3366319    1.5053372    5.8419691  -0.13008134  -0.13008134        47040 
 1135000    1.0021382    4.3405097    1.5031604    5.8436701  -0.13457564  -0.13457564        47040 
 1135500    0.9987006    4.3347284    1.4980041    5.8327325  -0.14157362  -0.14157362        47040 
 1136000   0.99998165    4.3368933    1.4999256    5.8368189  -0.16346823  -0.16346823        47040 
 1136500   0.99399969    4.3451299    1.4909529    5.8360829  -0.14364136  -0.14364136        47040 
 1137000    1.0012891    4.3414403    1.5018867     5.843327  -0.10689169  -0.10689169        47040 
 1137500    1.0005278    4.3362736    1.5007448    5.8370184 -0.095086012 -0.095086012        47040 
 1138000    1.0015849    4.3387637    1.5023304    5.8410941 -0.091939479 -0.091939479        47040 
 1138500   0.99564264    4.3412925    1.4934173    5.8347098 -0.095011222 -0.095011222        47040 
 1139000   0.99355036    4.3321729     1.490279    5.8224519  -0.11329645  -0.11329645        47040 
 1139500    1.0041508    4.3352947    1.5061791    5.8414738 -0.064702857 -0.064702857        47040 
 1140000    1.0008515    4.3497007    1.5012304     5.850931 -0.024851457 -0.024851457        47040 
 1140500     1.003778    4.3405472      1.50562    5.8461671 -0.059906805 -0.059906805        47040 
 1141000    0.9962822    4.3355686    1.4943766    5.8299452   -0.1347606   -0.1347606        47040 
 1141500   0.99702765    4.3468201    1.4954947    5.8423148  -0.15058016  -0.15058016        47040 
 1142000   0.99507838    4.3451748    1.4925709    5.8377457  -0.12163518  -0.12163518        47040 
 1142500   0.99729231    4.3471976    1.4958917    5.8430893  -0.12257071  -0.12257071        47040 
 1143000    0.9937156     4.341653    1.4905268    5.8321798  -0.14358109  -0.14358109        47040 
 1143500   0.99800512    4.3504049    1.4969609    5.8473658 -0.064289565 -0.064289565        47040 
 1144000   0.99555224    4.3520811    1.4932817    5.8453628 -0.069068659 -0.069068659        47040 
 1144500    1.0031377     4.335739    1.5046596    5.8403986 -0.0081393231 -0.0081393231        47040 
 1145000   0.99149365    4.3393649     1.487194    5.8265589 -0.051778529 -0.051778529        47040 
 1145500   0.99474455    4.3331467    1.4920702    5.8252169 -0.080992003 -0.080992003        47040 
 1146000    1.0028515    4.3379576    1.5042303    5.8421879  -0.08728405  -0.08728405        47040 
 1146500    1.0004188    4.3339287    1.5005813      5.83451  -0.12876313  -0.12876313        47040 
 1147000   0.99789757       4.3575    1.4967996    5.8542996 -0.090825173 -0.090825173        47040 
 1147500    1.0011697    4.3493199    1.5017077    5.8510276  -0.11007259  -0.11007259        47040 
 1148000   0.99843782    4.3551984    1.4976099    5.8528083  -0.11715238  -0.11715238        47040 
 1148500   0.99918899    4.3452815    1.4987366    5.8440182  -0.10838346  -0.10838346        47040 
 1149000    1.0012996    4.3530789    1.5019024    5.8549813  -0.12896454  -0.12896454        47040 
 1149500    1.0024757    4.3499423    1.5036665    5.8536088 -0.060682326 -0.060682326        47040 
 1150000    1.0009461    4.3501076    1.5013722    5.8514798 -0.073402578 -0.073402578        47040 
 1150500    1.0025872    4.3458441    1.5038338    5.8496779  -0.09342999  -0.09342999        47040 
 1151000   0.99661788    4.3153001    1.4948801    5.8101802  -0.12597394  -0.12597394        47040 
 1151500    1.0032756    4.3336098    1.5048663    5.8384761  -0.12100613  -0.12100613        47040 
 1152000    1.0037858    4.3398847    1.5056316    5.8455163 -0.066316151 -0.066316151        47040 
 1152500     1.003096    4.3366145     1.504597    5.8412115 -0.076228129 -0.076228129        47040 
 1153000    1.0018713    4.3332736      1.50276    5.8360336 -0.077832973 -0.077832973        47040 
 1153500    1.0004077     4.330091    1.5005646    5.8306556 -0.063625372 -0.063625372        47040 
 1154000   0.99947303    4.3325564    1.4991627    5.8317191  -0.11012705  -0.11012705        47040 
 1154500   0.99903719    4.3387743    1.4985089    5.8372833 -0.057455504 -0.057455504        47040 
 1155000    1.0068192     4.350376    1.5101817    5.8605577  -0.10775875  -0.10775875        47040 
 1155500    1.0086582    4.3453025      1.51294    5.8582424  -0.15653688  -0.15653688        47040 
 1156000    1.0043811    4.3457743    1.5065246    5.8522989  -0.12825631  -0.12825631        47040 
 1156500   0.99966687    4.3412699    1.4994534    5.8407233  -0.13390499  -0.13390499        47040 
 1157000   0.99845518    4.3398953     1.497636    5.8375313  -0.11991425  -0.11991425        47040 
 1157500   0.99593605    4.3369074    1.4938574    5.8307648  -0.13446534  -0.13446534        47040 
 1158000   0.99253664    4.3389982    1.4887584    5.8277566  -0.11142068  -0.11142068        47040 
 1158500   0.98968805    4.3338725    1.4844857    5.8183582  -0.10068498  -0.10068498        47040 
 1159000   0.99941105    4.3273095    1.4990697    5.8263792  -0.10945655  -0.10945655        47040 
 1159500    1.0068291    4.3213693    1.5101964    5.8315657  -0.14528904  -0.14528904        47040 
 1160000    1.0007785    4.3354615    1.5011208    5.8365823  -0.10127522  -0.10127522        47040 
 1160500    1.0040586     4.339036    1.5060409    5.8450769 -0.073542333 -0.073542333        47040 
 1161000    1.0036727    4.3334785     1.505462    5.8389405  -0.11791526  -0.11791526        47040 
 1161500    1.0016554    4.3472468    1.5024362    5.8496831  -0.15416917  -0.15416917        47040 
 1162000   0.99816876    4.3604217    1.4972063     5.857628 -0.079439333 -0.079439333        47040 
 1162500    1.0039892    4.3513056    1.5059367    5.8572423  -0.12713198  -0.12713198        47040 
 1163000    1.0059998    4.3610178    1.5089526    5.8699704 -0.073822431 -0.073822431        47040 
 1163500    1.0039571    4.3401294    1.5058886    5.8460179 -0.053227543 -0.053227543        47040 
 1164000    1.0055999    4.3368091    1.5083528    5.8451619 -0.081193789 -0.081193789        47040 
 1164500   0.99402301    4.3261467    1.4909879    5.8171347  -0.12867319  -0.12867319        47040 
 1165000   0.99731973    4.3307876    1.4959328    5.8267204 -0.084576994 -0.084576994        47040 
 1165500    1.0003344    4.3439005    1.5004546    5.8443551 -0.069646508 -0.069646508        47040 
 1166000    1.0040518       4.3409    1.5060307    5.8469307 -0.0039457364 -0.0039457364        47040 
 1166500    1.0055962    4.3506519    1.5083471     5.858999  -0.08539848  -0.08539848        47040 
 1167000   0.99750253    4.3526736     1.496207    5.8488807  -0.10925561  -0.10925561        47040 
 1167500    1.0040016    4.3299698    1.5059553    5.8359251  -0.14345436  -0.14345436        47040 
 1168000   0.99725482    4.3407913    1.4958355    5.8366267  -0.11451244  -0.11451244        47040 
 1168500   0.99934813    4.3487746    1.4989753    5.8477499  -0.15803692  -0.15803692        47040 
 1169000    1.0042122    4.3384442    1.5062713    5.8447155  -0.14181517  -0.14181517        47040 
 1169500    1.0066082     4.356383    1.5098651    5.8662481  -0.10132525  -0.10132525        47040 
 1170000   0.99617725    4.3373592    1.4942192    5.8315783  -0.10493855  -0.10493855        47040 
 1170500   0.99700442    4.3379599    1.4954599    5.8334198  -0.11677245  -0.11677245        47040 
 1171000   0.99691516    4.3460562     1.495326    5.8413822 -0.076507859 -0.076507859        47040 
 1171500    0.9995782    4.3363737    1.4993204    5.8356941  -0.16905331  -0.16905331        47040 
 1172000   0.99849983    4.3570316    1.4977029    5.8547346 -0.099908912 -0.099908912        47040 
 1172500   0.99774541    4.3631419    1.4965713    5.8597133 -0.088932273 -0.088932273        47040 
 1173000     1.003534    4.3628788     1.505254    5.8681328 -0.064024409 -0.064024409        47040 
 1173500    1.0108887    4.3463321    1.5162856    5.8626178  -0.15879284  -0.15879284        47040 
 1174000    0.9917635    4.3301504    1.4875988    5.8177492  -0.16622467  -0.16622467        47040 
 1174500    1.0011325    4.3258083    1.5016518    5.8274601  -0.14309896  -0.14309896        47040 
 1175000    1.0012869    4.3384691    1.5018834    5.8403524 -0.073729779 -0.073729779        47040 
 1175500   0.99266206     4.349751    1.4889466    5.8386976 -0.042917267 -0.042917267        47040 
 1176000   0.99731042     4.345776    1.4959189    5.8416948 -0.085887359 -0.085887359        47040 
 1176500   0.99911401    4.3362469    1.4986242    5.8348711     -0.10228     -0.10228        47040 
 1177000    0.9998102    4.3406765    1.4996684    5.8403449 -0.091130123 -0.091130123        47040 
 1177500   0.99318492    4.3392233    1.4897308    5.8289541  -0.16282099  -0.16282099        47040 
 1178000   0.99419948    4.3411167    1.4912526    5.8323693  -0.11088585  -0.11088585        47040 
 1178500   0.99229584    4.3522504    1.4883972    5.8406476 -0.091394977 -0.091394977        47040 
 1179000    1.0012663    4.3462444    1.5018525    5.8480969  -0.15837715  -0.15837715        47040 
 1179500    0.9985923    4.3467212    1.4978416    5.8445629 -0.096656185 -0.096656185        47040 
 1180000   0.99891034    4.3380307    1.4983187    5.8363494  -0.12687589  -0.12687589        47040 
 1180500    1.0024717    4.3330835    1.5036606    5.8367441  -0.09196949  -0.09196949        47040 
 1181000    1.0063818    4.3261161    1.5095255    5.8356416 -0.087476215 -0.087476215        47040 
 1181500    1.0002398    4.3254635    1.5003129    5.8257764   -0.0498283   -0.0498283        47040 
 1182000    1.0035028     4.319975    1.5052072    5.8251822  -0.11373158  -0.11373158        47040 
 1182500    0.9909028    4.3194077    1.4863077    5.8057155  -0.14111232  -0.14111232        47040 
 1183000   0.98538646    4.3247517    1.4780335    5.8027851 -0.052520874 -0.052520874        47040 
 1183500   0.99767011    4.3122141    1.4964584    5.8086725 -0.051187937 -0.051187937        47040 
 1184000   0.99748078    4.3234586    1.4961744     5.819633  -0.10096007  -0.10096007        47040 
 1184500    1.0025501    4.3460196    1.5037781    5.8497977  -0.04750564  -0.04750564        47040 
 1185000    1.0015135    4.3436431    1.5022233    5.8458664 -0.072135765 -0.072135765        47040 
 1185500   0.98758555    4.3458695     1.481332    5.8272016 -0.087125662 -0.087125662        47040 
 1186000   0.99011554    4.3472695    1.4851269    5.8323964 -0.089809472 -0.089809472        47040 
 1186500   0.99981227    4.3392481    1.4996715    5.8389197  -0.11435299  -0.11435299        47040 
 1187000   0.99998574    4.3370036    1.4999317    5.8369353  -0.10654367  -0.10654367        47040 
 1187500   0.99978023    4.3389496    1.4996235    5.8385731  -0.03408287  -0.03408287        47040 
 1188000    1.0029524     4.344244    1.5043816    5.8486256 -0.065500915 -0.065500915        47040 
 1188500    1.0075065    4.3423739    1.5112126    5.8535865   -0.1531634   -0.1531634        47040 
 1189000    1.0055412    4.3456035    1.5082647    5.8538682 -0.056135376 -0.056135376        47040 
 1189500    1.0047988    4.3404544    1.5071511    5.8476054 -0.066110826 -0.066110826        47040 
 1190000    1.0029202    4.3490513    1.5043333    5.8533846  -0.15802021  -0.15802021        47040 
 1190500    1.0006117    4.3522392    1.5008706    5.8531098  -0.12160295  -0.12160295        47040 
 1191000   0.99458487    4.3560216    1.4918307    5.8478523  -0.11512891  -0.11512891        47040 
 1191500   0.99509813    4.3481678    1.4926006    5.8407683 -0.061586674 -0.061586674        47040 
 1192000   0.99925567    4.3355138    1.4988367    5.8343505  -0.10234086  -0.10234086        47040 
 1192500    1.0027846    4.3282912    1.5041299    5.8324211  -0.17181828  -0.17181828        47040 
 1193000   0.99681179     4.330733     1.495171    5.8259039 -0.090085462 -0.090085462        47040 
 1193500   0.99683984    4.3329423     1.495213    5.8281553 -0.087695203 -0.087695203        47040 
 1194000    1.0018923    4.3402533    1.5027916    5.8430448 -0.059916864 -0.059916864        47040 
 1194500    1.0070072    4.3393675    1.5104636    5.8498312  -0.14677981  -0.14677981        47040 
 1195000    0.9966816    4.3467359    1.4949757    5.8417115 -0.060630933 -0.060630933        47040 
 1195500   0.99478743    4.3476772    1.4921345    5.8398117 -0.055228477 -0.055228477        47040 
 1196000    1.0051863    4.3413491    1.5077323    5.8490815  -0.12806955  -0.12806955        47040 
 1196500    1.0080269    4.3458142     1.511993    5.8578073 -0.027317418 -0.027317418        47040 
 1197000    1.0024332     4.342871    1.5036029    5.8464738 -0.038927428 -0.038927428        47040 
 1197500   0.99881869    4.3336231    1.4981812    5.8318043  -0.12749404  -0.12749404        47040 
 1198000    1.0016467     4.335014    1.5024231    5.8374371  -0.14791188  -0.14791188        47040 
 1198500   0.99709024    4.3402422    1.4955886    5.8358308 -0.041919635 -0.041919635        47040 
 1199000     1.009325    4.3375939    1.5139402    5.8515341 -0.064843156 -0.064843156        47040 
 1199500    1.0001002    4.3444212    1.5001034    5.8445247 -0.098884426 -0.098884426        47040 
 1200000    1.0010086    4.3478502     1.501466    5.8493162  -0.15202347  -0.15202347        47040 
 1200500    1.0009434    4.3625948    1.5013682     5.863963 -0.087631711 -0.087631711        47040 
 1201000    1.0002338    4.3554087    1.5003038    5.8557125   -0.1677061   -0.1677061        47040 
 1201500   0.99857561    4.3602414    1.4978166     5.858058  -0.10847519  -0.10847519        47040 
 1202000    1.0002347    4.3587609    1.5003052    5.8590661 -0.083992696 -0.083992696        47040 
 1202500    1.0074836    4.3510403    1.5111782    5.8622185 -0.056751345 -0.056751345        47040 
 1203000    1.0049936    4.3406001    1.5074434    5.8480435 -0.044978884 -0.044978884        47040 
 1203500    1.0084568    4.3298326    1.5126379    5.8424706  -0.10289584  -0.10289584        47040 
 1204000    1.0056592    4.3169354    1.5084417    5.8253771  -0.12110918  -0.12110918        47040 
 1204500   0.99728915    4.3257198     1.495887    5.8216068  -0.11595011  -0.11595011        47040 
 1205000    1.0048348    4.3400663    1.5072051    5.8472714   -0.0878138   -0.0878138        47040 
 1205500    1.0067855    4.3460698    1.5101311    5.8562009  -0.14188606  -0.14188606        47040 
 1206000   0.99737555    4.3521699    1.4960166    5.8481865 -0.030986421 -0.030986421        47040 
 1206500    1.0039173    4.3380295     1.505829    5.8438584 -0.094598044 -0.094598044        47040 
 1207000   0.99289204    4.3312397    1.4892915    5.8205312  -0.14090067  -0.14090067        47040 
 1207500    0.9945249    4.3385538    1.4917407    5.8302945 -0.089734507 -0.089734507        47040 
 1208000    1.0011788    4.3364523    1.5017213    5.8381736  -0.12220999  -0.12220999        47040 
 1208500    1.0060919     4.330798    1.5090908    5.8398888 -0.096678821 -0.096678821        47040 
 1209000    1.0084004    4.3368315    1.5125533    5.8493848 -0.032675779 -0.032675779        47040 
 1209500   0.99738295    4.3377803    1.4960277    5.8338079 -0.055120094 -0.055120094        47040 
 1210000   0.99536051    4.3375837    1.4929941    5.8305778   -0.1112311   -0.1112311        47040 
 1210500   0.99613493    4.3389852    1.4941557    5.8331409 -0.085645664 -0.085645664        47040 
 1211000   0.99945815    4.3270907    1.4991404    5.8262311  -0.11377465  -0.11377465        47040 
 1211500    1.0005545    4.3326846    1.5007848    5.8334694  -0.11406123  -0.11406123        47040 
 1212000   0.99911853     4.346754     1.498631     5.845385   -0.1188911   -0.1188911        47040 
 1212500     1.010069     4.333486    1.5150562    5.8485422  -0.11177512  -0.11177512        47040 
 1213000   0.99732316    4.3383826     1.495938    5.8343206 -0.089604648 -0.089604648        47040 
 1213500   0.99632101    4.3437254    1.4944348    5.8381602   -0.1054823   -0.1054823        47040 
 1214000   0.99937262    4.3375818    1.4990121    5.8365939 -0.057049291 -0.057049291        47040 
 1214500   0.99806795    4.3364021    1.4970551    5.8334572 -0.089896905 -0.089896905        47040 
 1215000    0.9938983    4.3330767    1.4908009    5.8238775   -0.1614988   -0.1614988        47040 
 1215500    1.0023841    4.3421731    1.5035291    5.8457023 -0.097773907 -0.097773907        47040 
 1216000    0.9986745    4.3389368    1.4979649    5.8369018 -0.082430114 -0.082430114        47040 
 1216500    1.0005724    4.3326129    1.5008116    5.8334245  -0.10139848  -0.10139848        47040 
 1217000   0.99820543    4.3277323    1.4972614    5.8249937 -0.099770183 -0.099770183        47040 
 1217500    1.0076524    4.3260897    1.5114313     5.837521 -0.080108758 -0.080108758        47040 
 1218000    1.0066949    4.3244032    1.5099951    5.8343983 -0.097952708 -0.097952708        47040 
 1218500    1.0116319    4.3306909    1.5174004    5.8480913 -0.078014498 -0.078014498        47040 
 1219000   0.99856747     4.330825    1.4978044    5.8286294 -0.074763293 -0.074763293        47040 
 1219500     1.002321    4.3457103    1.5034346    5.8491448 -0.098821639 -0.098821639        47040 
 1220000     1.000582    4.3345873    1.5008261    5.8354134  -0.10659592  -0.10659592        47040 
 1220500   0.99762606    4.3396265    1.4963923    5.8360188  -0.11376315  -0.11376315        47040 
 1221000    1.0003805    4.3402352    1.5005238     5.840759  -0.14524707  -0.14524707        47040 
 1221500    1.0019695    4.3362708    1.5029073     5.839178 -0.053243599 -0.053243599        47040 
 1222000   0.99286575    4.3365918    1.4892521    5.8258438 -0.079464676 -0.079464676        47040 
 1222500   0.99628158    4.3312531    1.4943757    5.8256288  -0.13170805  -0.13170805        47040 
 1223000    0.9970186    4.3321212    1.4954812    5.8276024 -0.069228757 -0.069228757        47040 
 1223500   0.99595411    4.3322185    1.4938845     5.826103  -0.05738439  -0.05738439        47040 
 1224000    1.0051378    4.3407788    1.5076596    5.8484384  -0.07563033  -0.07563033        47040 
 1224500   0.99898337    4.3395326    1.4984282    5.8379608 -0.056948474 -0.056948474        47040 
 1225000   0.99670465    4.3427531    1.4950103    5.8377634 -0.096997956 -0.096997956        47040 
 1225500   0.99663931    4.3374377    1.4949122    5.8323499  -0.13970959  -0.13970959        47040 
 1226000   0.99774245    4.3446897    1.4965669    5.8412566  -0.11955601  -0.11955601        47040 
 1226500    1.0002295    4.3434966    1.5002974     5.843794  -0.15588241  -0.15588241        47040 
 1227000    1.0041016    4.3422411    1.5061053    5.8483464 -0.093106226 -0.093106226        47040 
 1227500    1.0070285    4.3516192    1.5104955    5.8621147 -0.073488215 -0.073488215        47040 
 1228000    1.0015423    4.3445655    1.5022666     5.846832  -0.14168949  -0.14168949        47040 
 1228500    1.0001334    4.3278349    1.5001532    5.8279882  -0.15527882  -0.15527882        47040 
 1229000   0.99064948    4.3407695    1.4859278    5.8266973 -0.053249937 -0.053249937        47040 
 1229500   0.99941085     4.335305    1.4990694    5.8343744 -0.075931541 -0.075931541        47040 
 1230000    1.0015522     4.333435    1.5022814    5.8357164  -0.10116239  -0.10116239        47040 
 1230500    1.0003777    4.3400889    1.5005196    5.8406085  -0.11866171  -0.11866171        47040 
 1231000   0.99202111    4.3400735    1.4879852    5.8280587  -0.13976039  -0.13976039        47040 
 1231500   0.99328966     4.343513    1.4898879    5.8334009  -0.10358617  -0.10358617        47040 
 1232000   0.99645282    4.3417831    1.4946325    5.8364156  -0.13179035  -0.13179035        47040 
 1232500   0.99384444    4.3493677    1.4907201    5.8400878  -0.15783446  -0.15783446        47040 
 1233000   0.99826769    4.3427351    1.4973547    5.8400898  -0.13060959  -0.13060959        47040 
 1233500    1.0030003    4.3480552    1.5044535    5.8525087 -0.078446801 -0.078446801        47040 
 1234000    1.0035637    4.3590581    1.5052985    5.8643566  -0.10029123  -0.10029123        47040 
 1234500    1.0023232    4.3393499    1.5034378    5.8427878  -0.15695843  -0.15695843        47040 
 1235000   0.99395201    4.3443637    1.4908814    5.8352452  -0.12771983  -0.12771983        47040 
 1235500   0.99801163    4.3481736    1.4969707    5.8451443  -0.12854639  -0.12854639        47040 
 1236000   0.99942471    4.3342268    1.4990902     5.833317 -0.032476859 -0.032476859        47040 
 1236500   0.99580245    4.3307446     1.493657    5.8244016 -0.091959796 -0.091959796        47040 
 1237000    1.0029962    4.3322533    1.5044473    5.8367007  -0.09468545  -0.09468545        47040 
 1237500    1.0012138    4.3475702    1.5017738     5.849344  -0.13927895  -0.13927895        47040 
 1238000    1.0039231    4.3506889    1.5058375    5.8565265  -0.10619983  -0.10619983        47040 
 1238500   0.99938776    4.3542949    1.4990348    5.8533297 -0.088752027 -0.088752027        47040 
 1239000   0.99935952    4.3504612    1.4989924    5.8494536  -0.17564845  -0.17564845        47040 
 1239500   0.99183248    4.3415214    1.4877022    5.8292236  -0.13063813  -0.13063813        47040 
 1240000   0.99847445    4.3439048    1.4976649    5.8415697  -0.11315392  -0.11315392        47040 
 1240500   0.99510183    4.3378831    1.4926061    5.8304892  -0.13064092  -0.13064092        47040 
 1241000    1.0043692    4.3610521    1.5065067    5.8675588  -0.15909538  -0.15909538        47040 
 1241500   0.99892994    4.3314184    1.4983481    5.8297665  -0.15521291  -0.15521291        47040 
 1242000   0.99407001    4.3361614    1.4910584    5.8272198 -0.077750149 -0.077750149        47040 
 1242500   0.99552259    4.3433356    1.4932372    5.8365728  -0.18055163  -0.18055163        47040 
 1243000     1.005344    4.3471455    1.5079688    5.8551144 -0.069332921 -0.069332921        47040 
 1243500    1.0051087    4.3388177    1.5076159    5.8464336 -0.077619359 -0.077619359        47040 
 1244000   0.99339405    4.3484277    1.4900445    5.8384722 -0.085027986 -0.085027986        47040 
 1244500   0.99263175    4.3403955    1.4889011    5.8292966  -0.13257026  -0.13257026        47040 
 1245000   0.99203169    4.3338715     1.488001    5.8218726 -0.083291216 -0.083291216        47040 
 1245500   0.99522773    4.3180962    1.4927949    5.8108911  -0.12684076  -0.12684076        47040 
 1246000   0.99318009    4.3338569    1.4897236    5.8235805  -0.12608286  -0.12608286        47040 
 1246500   0.99831354    4.3352167    1.4974235    5.8326403  -0.13640858  -0.13640858        47040 
 1247000   0.99677516    4.3316005     1.495116    5.8267165 -0.077707851 -0.077707851        47040 
 1247500    1.0012619    4.3346324     1.501846    5.8364784 -0.087070954 -0.087070954        47040 
 1248000    1.0048736    4.3517027    1.5072633     5.858966 -0.048498728 -0.048498728        47040 
 1248500    1.0016442    4.3408967    1.5024194    5.8433161 -0.096008406 -0.096008406        47040 
 1249000   0.99987094    4.3391972    1.4997595    5.8389568   -0.0450315   -0.0450315        47040 
 1249500    1.0021827    4.3347075    1.5032271    5.8379346 -0.051423239 -0.051423239        47040 
 1250000    1.0041774    4.3248552     1.506219    5.8310742 -0.052706965 -0.052706965        47040 
 1250500   0.99925913    4.3230072    1.4988419    5.8218491 -0.077103243 -0.077103243        47040 
 1251000    1.0032797    4.3410751    1.5048725    5.8459476 -0.078471382 -0.078471382        47040 
 1251500   0.99353638    4.3264217     1.490258    5.8166797  -0.18897932  -0.18897932        47040 
 1252000    1.0007315    4.3439005    1.5010504    5.8449509 -0.067858135 -0.067858135        47040 
 1252500   0.99843503    4.3346944    1.4976057    5.8323001  -0.12020053  -0.12020053        47040 
 1253000   0.99777991    4.3316365    1.4966231    5.8282596  -0.14841712  -0.14841712        47040 
 1253500    1.0040656    4.3488666    1.5060513    5.8549179 -0.080519898 -0.080519898        47040 
 1254000     1.003572    4.3443735    1.5053109    5.8496844   -0.0816047   -0.0816047        47040 
 1254500   0.99860107    4.3565529    1.4978548    5.8544077  -0.09175784  -0.09175784        47040 
 1255000   0.99649167    4.3565069    1.4946908    5.8511977   -0.1784805   -0.1784805        47040 
 1255500   0.99786513    4.3448354    1.4967509    5.8415864  -0.10245328  -0.10245328        47040 
 1256000   0.99494108    4.3401202     1.492365    5.8324851 -0.086620741 -0.086620741        47040 
 1256500   0.98982306    4.3396495    1.4846882    5.8243377  -0.10682045  -0.10682045        47040 
 1257000   0.99922949    4.3410457    1.4987974    5.8398431 -0.053794211 -0.053794211        47040 
 1257500    1.0075427    4.3366342    1.5112669    5.8479011 -0.070042532 -0.070042532        47040 
 1258000    1.0031533    4.3494183     1.504683    5.8541013 -0.039007386 -0.039007386        47040 
 1258500    1.0016454    4.3393015    1.5024212    5.8417227 -0.075277336 -0.075277336        47040 
 1259000   0.99957413    4.3506662    1.4993143    5.8499806  -0.10701305  -0.10701305        47040 
 1259500    1.0018098    4.3580878    1.5026677    5.8607555  -0.15049397  -0.15049397        47040 
 1260000    1.0040419    4.3590795    1.5060158    5.8650953  -0.11988289  -0.11988289        47040 
 1260500   0.99356013     4.345702    1.4902936    5.8359956  -0.13697492  -0.13697492        47040 
 1261000    1.0051548    4.3344085    1.5076851    5.8420936  -0.14235211  -0.14235211        47040 
 1261500   0.99788956    4.3315945    1.4967876    5.8283821  -0.11435529  -0.11435529        47040 
 1262000   0.99535679    4.3369508    1.4929885    5.8299393 -0.068272608 -0.068272608        47040 
 1262500   0.99058185    4.3456269    1.4858263    5.8314533 -0.084679539 -0.084679539        47040 
 1263000   0.99813284    4.3450218    1.4971525    5.8421743 -0.071137787 -0.071137787        47040 
 1263500    1.0053725    4.3421942    1.5080116    5.8502058  -0.15514338  -0.15514338        47040 
 1264000    1.0069322    4.3409054     1.510351    5.8512565  -0.08875072  -0.08875072        47040 
 1264500   0.98972726    4.3350959    1.4845445    5.8196404  -0.11789161  -0.11789161        47040 
 1265000   0.99674661    4.3288136    1.4950732    5.8238868 -0.079762621 -0.079762621        47040 
 1265500   0.99605108    4.3335322    1.4940299    5.8275622 -0.044078576 -0.044078576        47040 
 1266000    1.0007322    4.3362356    1.5010514     5.837287  -0.12478465  -0.12478465        47040 
 1266500   0.99282716    4.3494482    1.4891942    5.8386424 -0.075453068 -0.075453068        47040 
 1267000    1.0010422    4.3325053    1.5015164    5.8340217 -0.061346502 -0.061346502        47040 
 1267500    1.0072624    4.3228007    1.5108464    5.8336471  -0.12163055  -0.12163055        47040 
 1268000   0.99969766    4.3363297    1.4994996    5.8358294 -0.072921664 -0.072921664        47040 
 1268500   0.99782278     4.330553    1.4966874    5.8272404 -0.066044764 -0.066044764        47040 
 1269000    1.0074219    4.3327738    1.5110856    5.8438594 -0.095501078 -0.095501078        47040 
 1269500    0.9992564    4.3342504    1.4988378    5.8330881 -0.087914332 -0.087914332        47040 
 1270000   0.99703508    4.3442111    1.4955059     5.839717 -0.080589627 -0.080589627        47040 
 1270500    0.9943158    4.3373299    1.4914271     5.828757 -0.077850112 -0.077850112        47040 
 1271000   0.99428501    4.3354861    1.4913809     5.826867 -0.064391543 -0.064391543        47040 
 1271500   0.99328126    4.3354632    1.4898753    5.8253385  -0.03911933  -0.03911933        47040 
 1272000   0.99952262    4.3259835    1.4992371    5.8252206 -0.060468957 -0.060468957        47040 
 1272500    1.0029296    4.3317486    1.5043474     5.836096 -0.075883776 -0.075883776        47040 
 1273000    1.0112989    4.3514969    1.5169009    5.8683978 -0.024334267 -0.024334267        47040 
 1273500    1.0047565    4.3388942    1.5070877    5.8459819  -0.11916413  -0.11916413        47040 
 1274000   0.99821175    4.3464836    1.4972708    5.8437544 -0.084013222 -0.084013222        47040 
 1274500    1.0017865    4.3483963    1.5026328    5.8510291   -0.1599673   -0.1599673        47040 
 1275000       1.0142    4.3335625    1.5212524    5.8548149  -0.04131148  -0.04131148        47040 
 1275500   0.99930997     4.327784    1.4989181    5.8267021  -0.11451798  -0.11451798        47040 
 1276000    1.0011977    4.3211212    1.5017497    5.8228709 -0.073843627 -0.073843627        47040 
 1276500   0.99531137    4.3243271    1.4929204    5.8172475 -0.023005414 -0.023005414        47040 
 1277000   0.99419402    4.3328311    1.4912444    5.8240755  -0.10368245  -0.10368245        47040 
 1277500   0.99473037    4.3256108    1.4920489    5.8176597 -0.090120204 -0.090120204        47040 
 1278000   0.99284713    4.3181209    1.4892242    5.8073451  -0.11980874  -0.11980874        47040 
 1278500     1.000996     4.325253     1.501447       5.8267 -0.083579609 -0.083579609        47040 
 1279000    1.0045383    4.3359666    1.5067603    5.8427269  -0.17142712  -0.17142712        47040 
 1279500    1.0019408    4.3374496    1.5028643    5.8403138  -0.10438614  -0.10438614        47040 
 1280000    1.0063351    4.3439127    1.5094555    5.8533683  -0.11393332  -0.11393332        47040 
 1280500   0.99942942    4.3301192    1.4990973    5.8292165 -0.058959722 -0.058959722        47040 
 1281000   0.99750983    4.3408369     1.496218    5.8370549 -0.053709952 -0.053709952        47040 
 1281500   0.99659443     4.333761    1.4948449    5.8286059 -0.064878789 -0.064878789        47040 
 1282000    1.0038296    4.3246681    1.5056973    5.8303654  -0.10718278  -0.10718278        47040 
 1282500    1.0026228    4.3283461    1.5038872    5.8322333 -0.083799112 -0.083799112        47040 
 1283000    0.9955176    4.3291836    1.4932297    5.8224134  -0.11658003  -0.11658003        47040 
 1283500   0.98998707    4.3290921    1.4849342    5.8140263  -0.07483263  -0.07483263        47040 
 1284000   0.99821759    4.3292265    1.4972796    5.8265061    -0.152409    -0.152409        47040 
 1284500   0.99498234    4.3342651    1.4924269     5.826692  -0.14591675  -0.14591675        47040 
 1285000    1.0114073    4.3479679    1.5170636    5.8650315  -0.10707216  -0.10707216        47040 
 1285500    1.0048705    4.3535766    1.5072586    5.8608352 -0.084990343 -0.084990343        47040 
 1286000    1.0006701    4.3515347    1.5009582    5.8524929  -0.15352541  -0.15352541        47040 
 1286500    1.0001856    4.3436142    1.5002314    5.8438456 -0.073831214 -0.073831214        47040 
 1287000    1.0019361    4.3351462    1.5028572    5.8380033  -0.10470148  -0.10470148        47040 
 1287500    1.0017454    4.3424041    1.5025711    5.8449752 -0.035502784 -0.035502784        47040 
 1288000    1.0025451    4.3304439    1.5037707    5.8342146 -0.085234755 -0.085234755        47040 
 1288500    1.0028643     4.332314    1.5042494    5.8365634 -0.082353643 -0.082353643        47040 
 1289000   0.99843798    4.3331565    1.4976102    5.8307667  -0.11760233  -0.11760233        47040 
 1289500   0.99510028     4.328936    1.4926038    5.8215398  -0.12062008  -0.12062008        47040 
 1290000   0.99678242    4.3328621    1.4951269     5.827989 -0.087781341 -0.087781341        47040 
 1290500   0.99816825    4.3347842    1.4972056    5.8319898 -0.068917548 -0.068917548        47040 
 1291000   0.99803826    4.3311025    1.4970106    5.8281131  -0.16138575  -0.16138575        47040 
 1291500   0.99757694      4.32737    1.4963187    5.8236886 -0.084775159 -0.084775159        47040 
 1292000    0.9901698    4.3389472    1.4852083    5.8241554 -0.085553399 -0.085553399        47040 
 1292500    1.0041499    4.3450571    1.5061777    5.8512348  -0.13549844  -0.13549844        47040 
 1293000    1.0052977    4.3592383    1.5078994    5.8671376  -0.13638263  -0.13638263        47040 
 1293500    1.0061232    4.3462189    1.5091376    5.8553565   -0.0994654   -0.0994654        47040 
 1294000    1.0025599    4.3413358    1.5037928    5.8451286  -0.10004541  -0.10004541        47040 
 1294500   0.99895641    4.3431476    1.4983878    5.8415353   -0.1036193   -0.1036193        47040 
 1295000   0.99779754    4.3470577    1.4966495    5.8437073 -0.078460933 -0.078460933        47040 
 1295500   0.99465205    4.3383954    1.4919315    5.8303269  -0.10076826  -0.10076826        47040 
 1296000    1.0006027    4.3380452    1.5008571    5.8389023  -0.11467823  -0.11467823        47040 
 1296500    1.0028913    4.3460393    1.5042899    5.8503291  -0.13494582  -0.13494582        47040 
 1297000   0.99836969    4.3354704    1.4975077    5.8329781 -0.080846896 -0.080846896        47040 
 1297500    1.0068201    4.3296434    1.5101829    5.8398263 -0.074549983 -0.074549983        47040 
 1298000    1.0010566    4.3338096     1.501538    5.8353476 -0.058861443 -0.058861443        47040 
 1298500    1.0071327     4.339284    1.5106518    5.8499358 -0.069931143 -0.069931143        47040 
 1299000    1.0042439    4.3438266    1.5063187    5.8501453  -0.11209109  -0.11209109        47040 
 1299500    1.0016123    4.3512945    1.5023714    5.8536659 -0.067345843 -0.067345843        47040 
 1300000    1.0049565    4.3483294    1.5073876     5.855717 -0.052784232 -0.052784232        47040 
 1300500   0.99614046    4.3601865     1.494164    5.8543505 -0.060324685 -0.060324685        47040 
 1301000   0.99535577    4.3417897     1.492987    5.8347767  -0.12509345  -0.12509345        47040 
 1301500    1.0009192    4.3475183    1.5013319    5.8488501   -0.1521511   -0.1521511        47040 
 1302000   0.99679484    4.3445865    1.4951455     5.839732 -0.086720437 -0.086720437        47040 
 1302500    1.0013754    4.3429953    1.5020161    5.8450114 -0.079147112 -0.079147112        47040 
 1303000    1.0033495    4.3463836    1.5049772    5.8513609  -0.15569778  -0.15569778        47040 
 1303500    1.0092262    4.3388274     1.513792    5.8526195  -0.11396062  -0.11396062        47040 
 1304000   0.99941772    4.3361146    1.4990797    5.8351943 -0.067231334 -0.067231334        47040 
 1304500    1.0027704    4.3322512    1.5041085    5.8363597 -0.085729059 -0.085729059        47040 
 1305000    1.0084707    4.3280237    1.5126588    5.8406825 -0.063139039 -0.063139039        47040 
 1305500    1.0046273    4.3290845    1.5068939    5.8359783 -0.062507146 -0.062507146        47040 
 1306000   0.99726041    4.3514075    1.4958439    5.8472513 -0.039584399 -0.039584399        47040 
 1306500    1.0005746    4.3576204     1.500815    5.8584354  -0.11878046  -0.11878046        47040 
 1307000   0.99847867    4.3537706    1.4976712    5.8514418 -0.079838111 -0.079838111        47040 
 1307500   0.99677668    4.3535174    1.4951183    5.8486357 -0.094010409 -0.094010409        47040 
 1308000    0.9940014    4.3451486    1.4909555    5.8361041  -0.12341618  -0.12341618        47040 
 1308500     1.007826    4.3541039    1.5116917    5.8657956  -0.12193121  -0.12193121        47040 
 1309000    1.0034417    4.3468815    1.5051155     5.851997  -0.10678193  -0.10678193        47040 
 1309500    1.0040121    4.3563903     1.505971    5.8623613  -0.15816781  -0.15816781        47040 
 1310000    1.0041951    4.3517546    1.5062456    5.8580002  -0.10566271  -0.10566271        47040 
 1310500    1.0009587     4.336594    1.5013911     5.837985   -0.1238097   -0.1238097        47040 
 1311000    1.0000492    4.3369844    1.5000269    5.8370113 -0.043567207 -0.043567207        47040 
 1311500   0.99276065    4.3354572    1.4890944    5.8245516 -0.035418603 -0.035418603        47040 
 1312000   0.99640665    4.3239208    1.4945633    5.8184841 -0.076969278 -0.076969278        47040 
 1312500   0.99978594    4.3252746    1.4996321    5.8249066 -0.072213391 -0.072213391        47040 
 1313000    0.9961966    4.3433114    1.4942482    5.8375596  -0.15564647  -0.15564647        47040 
 1313500    1.0051114    4.3435536      1.50762    5.8511736  -0.11503994  -0.11503994        47040 
 1314000   0.99903356    4.3502237    1.4985035    5.8487272 -0.066929569 -0.066929569        47040 
 1314500   0.99987797    4.3451419    1.4997701     5.844912  -0.10150069  -0.10150069        47040 
 1315000     0.995307    4.3439343    1.4929138    5.8368481 -0.089137914 -0.089137914        47040 
 1315500   0.99428242    4.3368045     1.491377    5.8281815 -0.089928959 -0.089928959        47040 
 1316000    1.0012608    4.3360602    1.5018443    5.8379045  -0.06825146  -0.06825146        47040 
 1316500   0.99887674    4.3362997    1.4982683     5.834568  -0.14993102  -0.14993102        47040 
 1317000    1.0035207    4.3385555     1.505234    5.8437895 -0.086925966 -0.086925966        47040 
 1317500    1.0082281    4.3437069    1.5122949    5.8560017  -0.06995042  -0.06995042        47040 
 1318000    1.0021477    4.3275455    1.5031746    5.8307201 -0.046735181 -0.046735181        47040 
 1318500    1.0042138    4.3348626    1.5062736    5.8411362 -0.098418375 -0.098418375        47040 
 1319000    1.0058727    4.3438018    1.5087618    5.8525637  -0.11540124  -0.11540124        47040 
 1319500    1.0002539    4.3438893    1.5003339    5.8442232  -0.11122559  -0.11122559        47040 
 1320000    1.0048967    4.3309703    1.5072979    5.8382682  -0.13802536  -0.13802536        47040 
 1320500    0.9926598     4.334457    1.4889432    5.8234001   -0.1534404   -0.1534404        47040 
 1321000   0.99373623    4.3440112    1.4905578     5.834569 -0.090278147 -0.090278147        47040 
 1321500   0.99562221    4.3455839    1.4933866    5.8389706  -0.11525449  -0.11525449        47040 
 1322000   0.99692748    4.3429153    1.4953445    5.8382598  -0.14362501  -0.14362501        47040 
 1322500   0.99332402    4.3447244    1.4899395    5.8346639 -0.055738301 -0.055738301        47040 
 1323000   0.99419474    4.3425632    1.4912455    5.8338088  -0.15225001  -0.15225001        47040 
 1323500   0.99900367    4.3236613    1.4984587      5.82212  -0.13168739  -0.13168739        47040 
 1324000   0.99298613    4.3377801    1.4894327    5.8272127  -0.10007656  -0.10007656        47040 
 1324500    1.0002178     4.324127    1.5002798    5.8244068  -0.14273801  -0.14273801        47040 
 1325000   0.99317667    4.3409794    1.4897184    5.8306978 -0.048693188 -0.048693188        47040 
 1325500   0.99411162     4.331188    1.4911208    5.8223089 -0.017792432 -0.017792432        47040 
 1326000   0.98892267    4.3512662    1.4833377    5.8346039  -0.11438233  -0.11438233        47040 
 1326500   0.99030329    4.3427601    1.4854085    5.8281686  -0.12836767  -0.12836767        47040 
 1327000   0.99433121    4.3470849    1.4914502    5.8385351 -0.055789731 -0.055789731        47040 
 1327500   0.99993277    4.3462009    1.4998523    5.8460532 -0.071704443 -0.071704443        47040 
 1328000   0.99700022    4.3519777    1.4954536    5.8474313  -0.11071868  -0.11071868        47040 
 1328500    1.0009816    4.3365399    1.5014255    5.8379654  -0.12952235  -0.12952235        47040 
 1329000    0.9921098    4.3394363    1.4881182    5.8275545  -0.14337423  -0.14337423        47040 
 1329500   0.99739084    4.3442244    1.4960395    5.8402639  -0.10497344  -0.10497344        47040 
 1330000    1.0012219    4.3374146    1.5017859    5.8392005 -0.055846355 -0.055846355        47040 
 1330500    1.0133434     4.338935    1.5199676    5.8589026  -0.11390757  -0.11390757        47040 
 1331000    1.0046697     4.340734    1.5069575    5.8476915 -0.088280752 -0.088280752        47040 
 1331500   0.99981804    4.3360529    1.4996802    5.8357331  -0.05153643  -0.05153643        47040 
 1332000    1.0002234    4.3258513    1.5002882    5.8261395   -0.0583774   -0.0583774        47040 
 1332500   0.99460822    4.3281304    1.4918657    5.8199961 -0.054480056 -0.054480056        47040 
 1333000   0.98878865    4.3411845    1.4831366    5.8243211  -0.13715142  -0.13715142        47040 
 1333500    1.0075702    4.3344045     1.511308    5.8457125  -0.08125843  -0.08125843        47040 
 1334000    1.0022094    4.3387264    1.5032671    5.8419935 -0.078664634 -0.078664634        47040 
 1334500    1.0048605    4.3490464    1.5072436      5.85629  -0.11820973  -0.11820973        47040 
 1335000   0.99968262    4.3606058    1.4994771    5.8600828   -0.1225971   -0.1225971        47040 
 1335500    1.0004474    4.3505267    1.5006241    5.8511508 -0.097605125 -0.097605125        47040 
 1336000    1.0004471      4.34666    1.5006238    5.8472838  -0.11929186  -0.11929186        47040 
 1336500   0.99986882    4.3469714    1.4997564    5.8467278 -0.066889065 -0.066889065        47040 
 1337000   0.99793559    4.3499119    1.4968566    5.8467685  -0.08848484  -0.08848484        47040 
 1337500    1.0069648    4.3471553       1.5104    5.8575553 -0.077031033 -0.077031033        47040 
 1338000    1.0050177    4.3583086    1.5074795    5.8657881  -0.11135949  -0.11135949        47040 
 1338500    1.0051505    4.3526706    1.5076786    5.8603491 -0.076981825 -0.076981825        47040 
 1339000    1.0021499    4.3467047    1.5031778    5.8498825  -0.13178702  -0.13178702        47040 
 1339500   0.99535247    4.3470993    1.4929821    5.8400813  -0.15222797  -0.15222797        47040 
 1340000    0.9962131    4.3443697     1.494273    5.8386426  -0.15679459  -0.15679459        47040 
 1340500   0.99627135    4.3493413    1.4943603    5.8437016  -0.12400246  -0.12400246        47040 
 1341000    1.0014468    4.3351027    1.5021232    5.8372259  -0.12264843  -0.12264843        47040 
 1341500   0.99732185    4.3272539     1.495936    5.8231899 -0.066688645 -0.066688645        47040 
 1342000   0.99237538    4.3280051    1.4885166    5.8165216 -0.096648279 -0.096648279        47040 
 1342500   0.99500934    4.3285547    1.4924674    5.8210221 -0.059893322 -0.059893322        47040 
 1343000   0.99592182    4.3344072     1.493836    5.8282433  -0.13638928  -0.13638928        47040 
 1343500   0.99731403    4.3340798    1.4959243    5.8300041  -0.11918239  -0.11918239        47040 
 1344000     1.000448    4.3363217    1.5006251    5.8369468 -0.066990058 -0.066990058        47040 
 1344500   0.99960572    4.3402171    1.4993617    5.8395789  -0.13184698  -0.13184698        47040 
 1345000    0.9915198    4.3387638    1.4872332    5.8259971 -0.072122712 -0.072122712        47040 
 1345500   0.99666246    4.3424466     1.494947    5.8373936  -0.15634392  -0.15634392        47040 
 1346000   0.99828495    4.3363352    1.4973806    5.8337158 -0.089522662 -0.089522662        47040 
 1346500   0.99494336    4.3406545    1.4923684    5.8330229  -0.11645757  -0.11645757        47040 
 1347000    0.9992861    4.3504032    1.4988823    5.8492855 -0.036704856 -0.036704856        47040 
 1347500   0.99330735    4.3478769    1.4899145    5.8377914  -0.11924619  -0.11924619        47040 
 1348000    1.0001119    4.3459814     1.500121    5.8461024  -0.10064386  -0.10064386        47040 
 1348500    1.0050974    4.3497869    1.5075991    5.8573859 -0.050159095 -0.050159095        47040 
 1349000   0.99979258    4.3492556     1.499642    5.8488976 -0.067895041 -0.067895041        47040 
 1349500     0.995951    4.3703471    1.4938798     5.864227  -0.14260973  -0.14260973        47040 
 1350000      1.00487    4.3618022    1.5072578      5.86906  -0.13919253  -0.13919253        47040 
 1350500    1.0040384    4.3665815    1.5060105     5.872592 -0.093045289 -0.093045289        47040 
 1351000    1.0030248    4.3612893    1.5044902    5.8657795  -0.14091223  -0.14091223        47040 
 1351500    1.0051655    4.3594786    1.5077012    5.8671798 -0.068983443 -0.068983443        47040 
 1352000    1.0078381     4.341717    1.5117099    5.8534268  -0.12752039  -0.12752039        47040 
 1352500   0.99708413    4.3453214    1.4955795    5.8409009 -0.034194255 -0.034194255        47040 
 1353000    1.0051235    4.3323021    1.5076382    5.8399403  -0.15050189  -0.15050189        47040 
 1353500   0.99826264     4.336567    1.4973472    5.8339141  -0.13087701  -0.13087701        47040 
 1354000   0.99609096    4.3372756    1.4940898    5.8313654  -0.13900292  -0.13900292        47040 
 1354500    1.0016031    4.3586352    1.5023577    5.8609929 -0.066463145 -0.066463145        47040 
 1355000    1.0003949      4.34876    1.5005454    5.8493054 -0.092069879 -0.092069879        47040 
 1355500    1.0049658    4.3446167    1.5074016    5.8520183 -0.078253545 -0.078253545        47040 
 1356000    1.0018291    4.3454555    1.5026967    5.8481522   -0.1052153   -0.1052153        47040 
 1356500   0.99515281    4.3340483    1.4926826    5.8267308 -0.063738591 -0.063738591        47040 
 1357000    1.0011898    4.3364896    1.5017378    5.8382274  -0.10702152  -0.10702152        47040 
 1357500   0.99549158    4.3455611    1.4931907    5.8387518  -0.14479445  -0.14479445        47040 
 1358000   0.99140834    4.3435068     1.487066    5.8305728  -0.11897752  -0.11897752        47040 
 1358500   0.99049079    4.3506157    1.4856898    5.8363055  -0.12790338  -0.12790338        47040 
 1359000    0.9979806    4.3352746    1.4969241    5.8321987 -0.096721419 -0.096721419        47040 
 1359500    0.9911764    4.3276647    1.4867181    5.8143828  -0.10141333  -0.10141333        47040 
 1360000   0.99247785    4.3249501    1.4886703    5.8136203  -0.14262324  -0.14262324        47040 
 1360500   0.99933559    4.3374002    1.4989565    5.8363567  -0.16478767  -0.16478767        47040 
 1361000   0.99624676    4.3415587    1.4943234    5.8358821 -0.082812554 -0.082812554        47040 
 1361500    0.9990962    4.3333347    1.4985975    5.8319322  -0.19465831  -0.19465831        47040 
 1362000    1.0098053    4.3513321    1.5146606    5.8659927  -0.10671931  -0.10671931        47040 
 1362500    1.0061847    4.3403688    1.5092298    5.8495986  -0.11968908  -0.11968908        47040 
 1363000    0.9995954    4.3419816    1.4993462    5.8413278 -0.088948237 -0.088948237        47040 
 1363500   0.99740982    4.3370228     1.496068    5.8330908  -0.11594499  -0.11594499        47040 
 1364000    1.0021902    4.3245114    1.5032384    5.8277498  -0.15464455  -0.15464455        47040 
 1364500   0.99929321     4.348185     1.498893     5.847078 -0.092496646 -0.092496646        47040 
 1365000    1.0049028    4.3484425    1.5073072    5.8557497 -0.093585428 -0.093585428        47040 
 1365500   0.99986518    4.3503074    1.4997509    5.8500583 -0.099189796 -0.099189796        47040 
 1366000    0.9982706    4.3377201    1.4973591    5.8350792  -0.13103759  -0.13103759        47040 
 1366500    1.0014699    4.3487912    1.5021579    5.8509491  -0.16238784  -0.16238784        47040 
 1367000    1.0006138    4.3508517    1.5008738    5.8517255  -0.08287961  -0.08287961        47040 
 1367500    1.0035486    4.3512852    1.5052758     5.856561 -0.081048327 -0.081048327        47040 
 1368000    1.0106135    4.3436105    1.5158729    5.8594834 -0.055496471 -0.055496471        47040 
 1368500    1.0097688    4.3442229    1.5146059    5.8588288 -0.079399354 -0.079399354        47040 
 1369000     1.006774    4.3432692    1.5101137    5.8533829 -0.088984822 -0.088984822        47040 
 1369500    1.0033097    4.3430619    1.5049175    5.8479793  -0.08940106  -0.08940106        47040 
 1370000    1.0018067    4.3380091    1.5026632    5.8406723  -0.11293352  -0.11293352        47040 
 1370500    1.0060431    4.3449407    1.5090175    5.8539582 -0.099931401 -0.099931401        47040 
 1371000    1.0063464    4.3353726    1.5094724     5.844845  -0.14283599  -0.14283599        47040 
 1371500    1.0049737     4.356259    1.5074134    5.8636724  -0.13048683  -0.13048683        47040 
 1372000    1.0047451    4.3432012    1.5070705    5.8502717 -0.086448849 -0.086448849        47040 
 1372500   0.99821218    4.3390619    1.4972715    5.8363334  -0.10373508  -0.10373508        47040 
 1373000    1.0019131    4.3395432    1.5028227    5.8423659  -0.05971167  -0.05971167        47040 
 1373500   0.99594844    4.3412644     1.493876    5.8351403 -0.089387028 -0.089387028        47040 
 1374000   0.99207339    4.3398929    1.4880636    5.8279565 -0.065454595 -0.065454595        47040 
 1374500   0.99885031    4.3372215    1.4982286    5.8354501 -0.045624781 -0.045624781        47040 
 1375000    1.0023699    4.3367822    1.5035079    5.8402901 -0.072235474 -0.072235474        47040 
 1375500    1.0116079    4.3241154    1.5173645    5.8414798 -0.046751435 -0.046751435        47040 
 1376000    1.0062228    4.3284784     1.509287    5.8377655 -0.085626232 -0.085626232        47040 
 1376500    1.0019921    4.3320368    1.5029412     5.834978 -0.073229633 -0.073229633        47040 
 1377000    1.0050259     4.328992    1.5074917    5.8364837  -0.10270544  -0.10270544        47040 
 1377500    1.0003754    4.3349634    1.5005162    5.8354797  -0.11089991  -0.11089991        47040 
 1378000    0.9967094    4.3402701    1.4950174    5.8352875  -0.12171759  -0.12171759        47040 
 1378500   0.99797719    4.3348537     1.496919    5.8317727  -0.10795111  -0.10795111        47040 
 1379000   0.99565358    4.3244554    1.4934337    5.8178891  -0.12333538  -0.12333538        47040 
 1379500   0.99995013    4.3149227    1.4998783     5.814801  -0.13020833  -0.13020833        47040 
 1380000    1.0006547    4.3455884    1.5009351    5.8465235 -0.079053904 -0.079053904        47040 
 1380500    1.0005179    4.3338472    1.5007299    5.8345771 -0.076773053 -0.076773053        47040 
 1381000   0.99794598    4.3422007    1.4968722    5.8390729  -0.10686555  -0.10686555        47040 
 1381500    1.0040604    4.3239916    1.5060436    5.8300352  -0.12147922  -0.12147922        47040 
 1382000    1.0006395    4.3318323    1.5009124    5.8327446  -0.12716771  -0.12716771        47040 
 1382500   0.99727157    4.3298398    1.4958606    5.8257004  -0.11884321  -0.11884321        47040 
 1383000   0.99633498    4.3293249    1.4944558    5.8237807  -0.11864655  -0.11864655        47040 
 1383500    0.9997287    4.3227102    1.4995462    5.8222564 -0.096073718 -0.096073718        47040 
 1384000    1.0082788     4.328311    1.5123709    5.8406819 -0.077015867 -0.077015867        47040 
 1384500    1.0066775    4.3342778    1.5099691    5.8442469 -0.063564641 -0.063564641        47040 
 1385000    1.0018388    4.3450158    1.5027112     5.847727 -0.059860746 -0.059860746        47040 
 1385500    1.0032878     4.342929    1.5048847    5.8478137  -0.13581542  -0.13581542        47040 
 1386000    1.0094259    4.3388866    1.5140916    5.8529782 -0.071085939 -0.071085939        47040 
 1386500    1.0023919     4.354394    1.5035409    5.8579349  -0.11911633  -0.11911633        47040 
 1387000    1.0090563    4.3422353    1.5135371    5.8557724  -0.11419171  -0.11419171        47040 
 1387500    1.0019607    4.3425346    1.5028941    5.8454287 -0.062899965 -0.062899965        47040 
 1388000    1.0018958    4.3401825    1.5027967    5.8429792  -0.10485637  -0.10485637        47040 
 1388500   0.99876067     4.330713    1.4980942    5.8288072  -0.14224044  -0.14224044        47040 
 1389000     0.994485    4.3408233    1.4916809    5.8325042  -0.12994962  -0.12994962        47040 
 1389500   0.99178831    4.3379857     1.487636    5.8256216  -0.19491789  -0.19491789        47040 
 1390000     1.000188    4.3318614    1.5002351    5.8320964  -0.12557806  -0.12557806        47040 
 1390500    1.0036238    4.3357699    1.5053886    5.8411585 -0.061903147 -0.061903147        47040 
 1391000    1.0058846    4.3374863    1.5087798    5.8462661 -0.072838134 -0.072838134        47040 
 1391500    1.0034676    4.3392558    1.5051544    5.8444102  -0.14284298  -0.14284298        47040 
 1392000    1.0001255    4.3366437    1.5001414    5.8367851 -0.068859252 -0.068859252        47040 
 1392500    1.0041151    4.3399445    1.5061256    5.8460701 -0.075851175 -0.075851175        47040 
 1393000    1.0123596    4.3387414     1.518492    5.8572334 -0.088606444 -0.088606444        47040 
 1393500    1.0007261    4.3524253    1.5010423    5.8534676 -0.012561182 -0.012561182        47040 
 1394000    1.0029377    4.3531549    1.5043596    5.8575144  -0.05321299  -0.05321299        47040 
 1394500   0.98916403    4.3388567    1.4836997    5.8225564  -0.17275327  -0.17275327        47040 
 1395000    1.0006281    4.3498442    1.5008953    5.8507395  -0.14298041  -0.14298041        47040 
 1395500    1.0017721    4.3551871    1.5026112    5.8577984  -0.10343267  -0.10343267        47040 
 1396000    1.0003315    4.3414171    1.5004504    5.8418675 -0.070617681 -0.070617681        47040 
 1396500    1.0021645    4.3301723    1.5031998    5.8333721  -0.10440779  -0.10440779        47040 
 1397000    0.9978888    4.3261482    1.4967864    5.8229346  -0.10441825  -0.10441825        47040 
 1397500    1.0039268    4.3123315    1.5058432    5.8181747 -0.069338969 -0.069338969        47040 
 1398000    1.0048719    4.3240971    1.5072608    5.8313579 -0.053866618 -0.053866618        47040 
 1398500   0.99155077    4.3357306    1.4872797    5.8230102  -0.07853795  -0.07853795        47040 
 1399000   0.99344045      4.32004    1.4901141    5.8101541 -0.091800488 -0.091800488        47040 
 1399500   0.99555412    4.3303891    1.4932845    5.8236736 -0.096581419 -0.096581419        47040 
 1400000    1.0029085     4.342717    1.5043158    5.8470327 -0.071771464 -0.071771464        47040 
 1400500    0.9952628    4.3538039    1.4928475    5.8466514  -0.12999655  -0.12999655        47040 
 1401000    0.9944063    4.3528476    1.4915628    5.8444104  -0.15258959  -0.15258959        47040 
 1401500   0.99379378    4.3398653    1.4906441    5.8305094  -0.15069565  -0.15069565        47040 
 1402000   0.99997903    4.3464312    1.4999217    5.8463529  -0.11334832  -0.11334832        47040 
 1402500    1.0027163     4.347486    1.5040275    5.8515134   -0.0345403   -0.0345403        47040 
 1403000   0.99828963    4.3434917    1.4973876    5.8408794 -0.061375315 -0.061375315        47040 
 1403500   0.99896843    4.3338995    1.4984058    5.8323053  -0.10393359  -0.10393359        47040 
 1404000    1.0018168    4.3393507    1.5026782    5.8420289   -0.1595183   -0.1595183        47040 
 1404500   0.99512524    4.3422206    1.4926412    5.8348618   -0.1890485   -0.1890485        47040 
 1405000   0.99825519    4.3414476     1.497336    5.8387836  -0.13724797  -0.13724797        47040 
 1405500    1.0006368     4.342406    1.5009083    5.8433143  -0.11811762  -0.11811762        47040 
 1406000    1.0018985    4.3436652    1.5028009     5.846466 -0.079484933 -0.079484933        47040 
 1406500   0.99954685    4.3485154    1.4992734    5.8477889  -0.08958454  -0.08958454        47040 
 1407000    1.0002616    4.3432844    1.5003455    5.8436299  -0.08589975  -0.08589975        47040 
 1407500    1.0095596    4.3357233    1.5142921    5.8500154  -0.07261492  -0.07261492        47040 
 1408000    1.0016716    4.3513764    1.5024605    5.8538369  -0.12676972  -0.12676972        47040 
 1408500   0.99994711    4.3524042    1.4998738     5.852278 -0.087489176 -0.087489176        47040 
 1409000    1.0020689    4.3498716    1.5030564    5.8529279  -0.14540018  -0.14540018        47040 
 1409500    1.0026892    4.3475477    1.5039868    5.8515345  -0.13080063  -0.13080063        47040 
 1410000   0.99680119    4.3535629    1.4951551     5.848718  -0.11261251  -0.11261251        47040 
 1410500    1.0126005    4.3540039    1.5188533    5.8728572 -0.072789845 -0.072789845        47040 
 1411000   0.99823812    4.3411448    1.4973104    5.8384551  -0.10980293  -0.10980293        47040 
 1411500   0.99595807    4.3402184    1.4938904    5.8341088  -0.10793093  -0.10793093        47040 
 1412000   0.99585176      4.33765     1.493731     5.831381 -0.085221408 -0.085221408        47040 
 1412500    1.0002839    4.3343397    1.5003789    5.8347186  -0.09141909  -0.09141909        47040 
 1413000    1.0022139    4.3301933    1.5032739    5.8334672 -0.080317141 -0.080317141        47040 
 1413500   0.99461788    4.3298151    1.4918802    5.8216953 -0.067797007 -0.067797007        47040 
 1414000   0.99465211    4.3345368    1.4919315    5.8264683 -0.080547226 -0.080547226        47040 
 1414500   0.99743228    4.3317558    1.4961017    5.8278575  -0.10867416  -0.10867416        47040 
 1415000     1.009394     4.353999    1.5140437    5.8680427 -0.038104003 -0.038104003        47040 
 1415500    1.0047298    4.3461341    1.5070476    5.8531817  -0.15187082  -0.15187082        47040 
 1416000   0.99993158    4.3430107    1.4998505    5.8428612  -0.14977141  -0.14977141        47040 
 1416500    1.0008537    4.3361444    1.5012336     5.837378 -0.076725701 -0.076725701        47040 
 1417000   0.99629577     4.338705    1.4943969     5.833102  -0.14790658  -0.14790658        47040 
 1417500   0.99808154    4.3418311    1.4970755    5.8389066  -0.13162085  -0.13162085        47040 
 1418000   0.98899605    4.3423482    1.4834477    5.8257959  -0.11220099  -0.11220099        47040 
 1418500     0.995829    4.3227601    1.4936968     5.816457  -0.17926638  -0.17926638        47040 
 1419000     0.998693    4.3287528    1.4979927    5.8267455 -0.036842282 -0.036842282        47040 
 1419500    1.0024284    4.3235794    1.5035956     5.827175  -0.10630155  -0.10630155        47040 
 1420000    1.0020144    4.3316541    1.5029746    5.8346287 -0.083332645 -0.083332645        47040 
 1420500    1.0038308    4.3266684    1.5056992    5.8323676 -0.094099422 -0.094099422        47040 
 1421000    1.0050678    4.3317844    1.5075546    5.8393389 -0.093588294 -0.093588294        47040 
 1421500   0.99521606    4.3332717    1.4927774    5.8260492  -0.12973721  -0.12973721        47040 
 1422000    1.0013266    4.3352572    1.5019429       5.8372  -0.16169936  -0.16169936        47040 
 1422500    0.9990632    4.3404798     1.498548    5.8390278   -0.1104711   -0.1104711        47040 
 1423000    1.0052881    4.3388427    1.5078851    5.8467277  -0.17515815  -0.17515815        47040 
 1423500    1.0052554    4.3394966     1.507836    5.8473326  -0.14603392  -0.14603392        47040 
 1424000   0.99768845     4.353284    1.4964859    5.8497699  -0.16417816  -0.16417816        47040 
 1424500    1.0011049    4.3540353    1.5016104    5.8556457  -0.16548143  -0.16548143        47040 
 1425000    1.0056806    4.3474285    1.5084737    5.8559022 -0.074554488 -0.074554488        47040 
 1425500    1.0004425    4.3497214    1.5006168    5.8503382  -0.07207885  -0.07207885        47040 
 1426000   0.99970394    4.3467533    1.4995091    5.8462623  -0.16251789  -0.16251789        47040 
 1426500   0.99873418    4.3427551    1.4980545    5.8408096  -0.13056622  -0.13056622        47040 
 1427000   0.99993394    4.3334684     1.499854    5.8333224  -0.15073616  -0.15073616        47040 
 1427500   0.99889592    4.3295292    1.4982971    5.8278262 -0.085534005 -0.085534005        47040 
 1428000    1.0040373     4.337947     1.506009     5.843956  -0.13094472  -0.13094472        47040 
 1428500   0.99738985    4.3429075     1.496038    5.8389456 -0.081395082 -0.081395082        47040 
 1429000    1.0088737    4.3406855    1.5132633    5.8539488 0.0040362315 0.0040362315        47040 
 1429500    1.0020409    4.3353822    1.5030144    5.8383966 -0.087975455 -0.087975455        47040 
 1430000   0.99637686    4.3310081    1.4945186    5.8255267 -0.065343155 -0.065343155        47040 
 1430500    1.0018609    4.3238474    1.5027444    5.8265919 -0.075544023 -0.075544023        47040 
 1431000    1.0052387    4.3149521    1.5078109     5.822763  -0.06144123  -0.06144123        47040 
 1431500   0.99948927    4.3176236    1.4991871    5.8168107  -0.14876682  -0.14876682        47040 
 1432000   0.99274466    4.3280715    1.4890705     5.817142    -0.151346    -0.151346        47040 
 1432500   0.99983685    4.3370494    1.4997084    5.8367578 -0.092791688 -0.092791688        47040 
 1433000   0.99811226    4.3535953    1.4971216    5.8507169 -0.087883523 -0.087883523        47040 
 1433500   0.99838418    4.3406773    1.4975295    5.8382068  -0.14143717  -0.14143717        47040 
 1434000    0.9978925    4.3469422     1.496792    5.8437342  -0.15645832  -0.15645832        47040 
 1434500   0.99837074    4.3412626    1.4975093    5.8387719  -0.10717632  -0.10717632        47040 
 1435000    1.0023859     4.349199    1.5035319    5.8527309 -0.086953063 -0.086953063        47040 
 1435500    1.0119591    4.3430301    1.5178912    5.8609213  -0.10417294  -0.10417294        47040 
 1436000    1.0034224    4.3358373    1.5050865    5.8409238  -0.11370966  -0.11370966        47040 
 1436500    1.0007383    4.3393195    1.5010605    5.8403801  -0.10826164  -0.10826164        47040 
 1437000   0.99792714    4.3460588    1.4968439    5.8429028 -0.085352751 -0.085352751        47040 
 1437500   0.99448019     4.341034    1.4916737    5.8327077 -0.078194358 -0.078194358        47040 
 1438000   0.99307328    4.3424913    1.4895634    5.8320546  -0.07576664  -0.07576664        47040 
 1438500    1.0030764    4.3435422    1.5045676    5.8481099 -0.088638253 -0.088638253        47040 
 1439000   0.99708046    4.3418667    1.4955739    5.8374406 -0.076925237 -0.076925237        47040 
 1439500   0.99057294    4.3332334     1.485813    5.8190464  -0.10431687  -0.10431687        47040 
 1440000     1.004243    4.3416864    1.5063174    5.8480038   -0.0846055   -0.0846055        47040 
 1440500    1.0033156    4.3429775    1.5049263    5.8479039 -0.075784951 -0.075784951        47040 
 1441000    1.0022432    4.3418728    1.5033179    5.8451907 -0.089281024 -0.089281024        47040 
 1441500    1.0003496    4.3431018    1.5004776    5.8435794 -0.068593918 -0.068593918        47040 
 1442000     1.005208     4.352709    1.5077649    5.8604739  -0.13651312  -0.13651312        47040 
 1442500    1.0002671    4.3603773    1.5003538    5.8607312 -0.082857767 -0.082857767        47040 
 1443000   0.99539249    4.3569208    1.4930421    5.8499629 -0.099687798 -0.099687798        47040 
 1443500   0.99371007    4.3462481    1.4905185    5.8367666 -0.070783978 -0.070783978        47040 
 1444000    1.0014627    4.3329708     1.502147    5.8351179  -0.14215121  -0.14215121        47040 
 1444500    0.9966337    4.3383867    1.4949038    5.8332906  -0.13600039  -0.13600039        47040 
 1445000   0.99936774    4.3481913    1.4990048     5.847196 -0.084131781 -0.084131781        47040 
 1445500    1.0032617    4.3335618    1.5048455    5.8384072  -0.16000609  -0.16000609        47040 
 1446000   0.99823618    4.3343588    1.4973075    5.8316663  -0.10503248  -0.10503248        47040 
 1446500   0.99941116     4.344934    1.4990699    5.8440039 -0.025512676 -0.025512676        47040 
 1447000    0.9969017    4.3499654    1.4953058    5.8452712  -0.14864593  -0.14864593        47040 
 1447500    1.0001552     4.345738     1.500186     5.845924  -0.12801813  -0.12801813        47040 
 1448000   0.99409395    4.3388363    1.4910943    5.8299307 -0.065813924 -0.065813924        47040 
 1448500     1.000587    4.3479262    1.5008335    5.8487597  -0.15627847  -0.15627847        47040 
 1449000    1.0021488     4.347307    1.5031762    5.8504832 -0.059315602 -0.059315602        47040 
 1449500    1.0026899    4.3359759    1.5039878    5.8399637 -0.086285814 -0.086285814        47040 
 1450000    1.0022718    4.3434269    1.5033607    5.8467876  -0.10924669  -0.10924669        47040 
 1450500    0.9972865    4.3475134     1.495883    5.8433964 -0.095666957 -0.095666957        47040 
 1451000    1.0007437    4.3298651    1.5010687    5.8309338 -0.056970327 -0.056970327        47040 
 1451500   0.99537666    4.3421683    1.4930183    5.8351867 -0.065832668 -0.065832668        47040 
 1452000    1.0061679    4.3346622    1.5092047    5.8438669  -0.11571774  -0.11571774        47040 
 1452500    1.0060581    4.3435294      1.50904    5.8525694 -0.062449805 -0.062449805        47040 
 1453000    1.0086906    4.3336435    1.5129886    5.8466321  -0.13698218  -0.13698218        47040 
 1453500    1.0024951    4.3448063    1.5036957     5.848502 -0.053258513 -0.053258513        47040 
 1454000   0.99824185    4.3432734     1.497316    5.8405894  -0.08595036  -0.08595036        47040 
 1454500    1.0032121    4.3327849    1.5047712    5.8375561 -0.088850079 -0.088850079        47040 
 1455000   0.99290522    4.3271976    1.4893113    5.8165089  -0.13222354  -0.13222354        47040 
 1455500    1.0019092    4.3280787    1.5028169    5.8308956  -0.11246399  -0.11246399        47040 
 1456000   0.99639255    4.3340767    1.4945421    5.8286189  -0.13166717  -0.13166717        47040 
 1456500   0.99874982    4.3330049    1.4980779    5.8310828  -0.13330158  -0.13330158        47040 
 1457000    1.0027456     4.331917    1.5040715    5.8359884 -0.062423943 -0.062423943        47040 
 1457500    1.0059419    4.3331736    1.5088657    5.8420394 -0.026933949 -0.026933949        47040 
 1458000    1.0048851    4.3312504    1.5072805    5.8385309 -0.071969049 -0.071969049        47040 
 1458500   0.99985577    4.3230833    1.4997368    5.8228201 -0.082220569 -0.082220569        47040 
 1459000    1.0001252    4.3324413     1.500141    5.8325823 -0.075381473 -0.075381473        47040 
 1459500   0.99708129    4.3395508    1.4955752     5.835126 -0.017733682 -0.017733682        47040 
 1460000    1.0015726    4.3420661    1.5023119     5.844378  -0.08483469  -0.08483469        47040 
 1460500   0.99236203    4.3521553    1.4884965    5.8406518  -0.06892679  -0.06892679        47040 
 1461000   0.99911163    4.3395777    1.4986206    5.8381983 -0.014133493 -0.014133493        47040 
 1461500    1.0098913    4.3368735    1.5147896    5.8516631  -0.12779272  -0.12779272        47040 
 1462000    1.0017587    4.3430111    1.5025911    5.8456021  -0.08122086  -0.08122086        47040 
 1462500   0.99351485    4.3436226    1.4902257    5.8338484  -0.12038272  -0.12038272        47040 
 1463000   0.99619819    4.3401984    1.4942506     5.834449  -0.08041464  -0.08041464        47040 
 1463500    1.0088467    4.3568636    1.5132227    5.8700863  -0.10006187  -0.10006187        47040 
 1464000    1.0076217    4.3508769    1.5113853    5.8622622  -0.12888539  -0.12888539        47040 
 1464500   0.99997215    4.3484817    1.4999114     5.848393 -0.084403188 -0.084403188        47040 
 1465000    1.0041274    4.3401581    1.5061441    5.8463022  -0.12569033  -0.12569033        47040 
 1465500    1.0034456    4.3319873    1.5051213    5.8371086  -0.05225623  -0.05225623        47040 
 1466000    1.0005931    4.3371184    1.5008427    5.8379611  -0.10829126  -0.10829126        47040 
 1466500   0.99653847     4.344376     1.494761     5.839137 -0.094213131 -0.094213131        47040 
 1467000   0.99956433    4.3458698    1.4992996    5.8451695  -0.16524978  -0.16524978        47040 
 1467500     1.006692    4.3476148    1.5099909    5.8576057 -0.099678601 -0.099678601        47040 
 1468000    1.0043792    4.3373553    1.5065217    5.8438769  -0.09898212  -0.09898212        47040 
 1468500   0.99846286    4.3260431    1.4976475    5.8236906  -0.11117642  -0.11117642        47040 
 1469000     0.995979     4.335945    1.4939218    5.8298668 -0.050604545 -0.050604545        47040 
 1469500     1.000477    4.3417371    1.5006685    5.8424057   -0.0988049   -0.0988049        47040 
 1470000    1.0035112    4.3338631    1.5052197    5.8390828  -0.10678467  -0.10678467        47040 
 1470500   0.99548898     4.344844    1.4931868    5.8380308  -0.13507535  -0.13507535        47040 
 1471000    1.0009593    4.3326389     1.501392    5.8340308  -0.10289572  -0.10289572        47040 
 1471500    1.0036314    4.3436669       1.5054    5.8490669 -0.071118111 -0.071118111        47040 
 1472000    1.0089367    4.3365878    1.5133577    5.8499455  -0.10017988  -0.10017988        47040 
 1472500    1.0029975    4.3367573    1.5044493    5.8412066 -0.054127876 -0.054127876        47040 
 1473000   0.99868098    4.3382233    1.4979747     5.836198 -0.051436879 -0.051436879        47040 
 1473500   0.99845288    4.3333054    1.4976325    5.8309379  -0.08003912  -0.08003912        47040 
 1474000    0.9969854    4.3384207    1.4954314    5.8338521 -0.081305894 -0.081305894        47040 
 1474500   0.99829996    4.3328454    1.4974032    5.8302485  -0.11664231  -0.11664231        47040 
 1475000   0.99365923    4.3371625    1.4904423    5.8276048  -0.14436134  -0.14436134        47040 
 1475500   0.99960235    4.3291989    1.4993567    5.8285556 -0.068783395 -0.068783395        47040 
 1476000   0.99193208    4.3326937    1.4878516    5.8205453 -0.094586336 -0.094586336        47040 
 1476500   0.99104209    4.3229645    1.4865167    5.8094812  -0.11177394  -0.11177394        47040 
 1477000   0.99811052    4.3313634     1.497119    5.8284824 -0.082682843 -0.082682843        47040 
 1477500   0.99710197    4.3308604    1.4956062    5.8264666 -0.071815731 -0.071815731        47040 
 1478000    0.9945142    4.3445952    1.4917247    5.8363199 -0.051842373 -0.051842373        47040 
 1478500   0.99782966    4.3282357    1.4966977    5.8249334  -0.10087168  -0.10087168        47040 
 1479000    1.0031315    4.3272559    1.5046502    5.8319061  -0.11031711  -0.11031711        47040 
 1479500    0.9961022    4.3363496    1.4941066    5.8304562  -0.10294456  -0.10294456        47040 
 1480000   0.99619436    4.3317993    1.4942448    5.8260441 -0.031883342 -0.031883342        47040 
 1480500   0.99347989    4.3430697    1.4901733     5.833243 -0.079689568 -0.079689568        47040 
 1481000   0.99572192    4.3342493    1.4935362    5.8277855  -0.13174735  -0.13174735        47040 
 1481500   0.99902702    4.3366925    1.4984937    5.8351862 -0.095803571 -0.095803571        47040 
 1482000     1.004457    4.3457625    1.5066385     5.852401  -0.08207844  -0.08207844        47040 
 1482500    1.0058464    4.3464066    1.5087224     5.855129  -0.14934571  -0.14934571        47040 
 1483000    1.0040638    4.3310333    1.5060486    5.8370819  -0.12693629  -0.12693629        47040 
 1483500    0.9934567    4.3441658    1.4901385    5.8343043 -0.072072651 -0.072072651        47040 
 1484000    1.0033427    4.3521529    1.5049671      5.85712  -0.12300735  -0.12300735        47040 
 1484500   0.99942654     4.354519     1.499093     5.853612 -0.048705331 -0.048705331        47040 
 1485000   0.99789974    4.3376559    1.4968028    5.8344588  -0.10570101  -0.10570101        47040 
 1485500    1.0002093    4.3284369    1.5002671     5.828704  -0.11727622  -0.11727622        47040 
 1486000   0.99254088    4.3323684    1.4887648    5.8211332  -0.11408686  -0.11408686        47040 
 1486500   0.99600873     4.333246    1.4939664    5.8272124 -0.074418644 -0.074418644        47040 
 1487000   0.99956277    4.3252013    1.4992973    5.8244986  -0.12632887  -0.12632887        47040 
 1487500   0.99823127    4.3368637    1.4973001    5.8341638  -0.15594508  -0.15594508        47040 
 1488000    1.0014221    4.3386869    1.5020862    5.8407731  -0.11257848  -0.11257848        47040 
 1488500    1.0036142    4.3567852    1.5053742    5.8621594 -0.072940501 -0.072940501        47040 
 1489000    1.0033798     4.338335    1.5050227    5.8433577  -0.11495321  -0.11495321        47040 
 1489500    1.0005389    4.3360842    1.5007614    5.8368456 -0.059637639 -0.059637639        47040 
 1490000    1.0020742    4.3344338    1.5030643    5.8374981  -0.12718267  -0.12718267        47040 
 1490500   0.99488099    4.3335053    1.4922749    5.8257801  -0.11063222  -0.11063222        47040 
 1491000   0.99324563    4.3324393    1.4898219    5.8222611  -0.14491221  -0.14491221        47040 
 1491500   0.99217216    4.3297663    1.4882117     5.817978 -0.066740878 -0.066740878        47040 
 1492000    1.0024931    4.3275671    1.5036926    5.8312597 -0.053857082 -0.053857082        47040 
 1492500      1.00152    4.3375026     1.502233    5.8397356 -0.065111005 -0.065111005        47040 
 1493000    1.0049689    4.3260257    1.5074062    5.8334319 -0.092461454 -0.092461454        47040 
 1493500   0.99489982    4.3427678    1.4923031    5.8350709  -0.11897968  -0.11897968        47040 
 1494000   0.99408895    4.3374317    1.4910868    5.8285186   -0.1155333   -0.1155333        47040 
 1494500   0.99065095    4.3316917      1.48593    5.8176217 -0.061441113 -0.061441113        47040 
 1495000   0.98965786    4.3415525    1.4844404    5.8259929  -0.13034212  -0.13034212        47040 
 1495500    0.9986205    4.3375245    1.4978839    5.8354084  -0.10141916  -0.10141916        47040 
 1496000   0.99824807    4.3320239    1.4973253    5.8293493 -0.061062793 -0.061062793        47040 
 1496500    1.0036712    4.3348617    1.5054597    5.8403215  -0.11325335  -0.11325335        47040 
 1497000    1.0035136    4.3252707    1.5052233     5.830494 -0.039350637 -0.039350637        47040 
 1497500    1.0072653    4.3162071    1.5108508    5.8270578  -0.10076324  -0.10076324        47040 
 1498000   0.99673879    4.3198865    1.4950615     5.814948 -0.068671432 -0.068671432        47040 
 1498500    0.9959899    4.3259484    1.4939382    5.8198866 -0.030026508 -0.030026508        47040 
 1499000    1.0114133    4.3329097    1.5170725    5.8499822 -0.066777763 -0.066777763        47040 
 1499500    1.0026341      4.34988    1.5039042    5.8537842  -0.10191355  -0.10191355        47040 
 1500000    1.0016268    4.3464927    1.5023932    5.8488859 -0.081558716 -0.081558716        47040 
 1500500   0.99695596    4.3494403    1.4953872    5.8448275  -0.14935679  -0.14935679        47040 
 1501000   0.99766533    4.3476366    1.4964512    5.8440878  -0.13725302  -0.13725302        47040 
 1501500   0.99683494    4.3484161    1.4952057    5.8436218   -0.1654754   -0.1654754        47040 
 1502000    1.0018988     4.361502    1.5028012    5.8643032  -0.12561493  -0.12561493        47040 
 1502500   0.99941834     4.355161    1.4990807    5.8542417 -0.057869494 -0.057869494        47040 
 1503000    1.0114161    4.3462234    1.5170767    5.8633001  -0.10547057  -0.10547057        47040 
 1503500    1.0045696    4.3521183    1.5068073    5.8589256  -0.10414176  -0.10414176        47040 
 1504000    1.0061856     4.344363    1.5092312    5.8535942 -0.098210609 -0.098210609        47040 
 1504500    1.0041703    4.3402904    1.5062084    5.8464987  -0.13473256  -0.13473256        47040 
 1505000   0.99723924    4.3489971    1.4958121    5.8448092 -0.042355616 -0.042355616        47040 
 1505500    1.0046945    4.3397093    1.5069947    5.8467039  -0.10948398  -0.10948398        47040 
 1506000    1.0017032    4.3241318    1.5025078    5.8266397  -0.10152152  -0.10152152        47040 
 1506500   0.99779857    4.3227443    1.4966511    5.8193954 -0.0016127633 -0.0016127633        47040 
 1507000    1.0013729    4.3229106    1.5020124    5.8249231 -0.072172506 -0.072172506        47040 
 1507500   0.99866654    4.3304382     1.497953    5.8283912 -0.081111276 -0.081111276        47040 
 1508000   0.99703885    4.3304109    1.4955115    5.8259225 -0.081935164 -0.081935164        47040 
 1508500    1.0020168     4.346142    1.5029782    5.8491201 -0.043552451 -0.043552451        47040 
 1509000    1.0046057    4.3454181    1.5068614    5.8522795  -0.12349363  -0.12349363        47040 
 1509500   0.99747622    4.3474405    1.4961676    5.8436081  -0.16596045  -0.16596045        47040 
 1510000   0.99412614    4.3454026    1.4911426    5.8365452  -0.13632834  -0.13632834        47040 
 1510500    1.0010317    4.3356002    1.5015006    5.8371008  -0.13023871  -0.13023871        47040 
 1511000    0.9975008    4.3397747    1.4962044    5.8359792  -0.13636462  -0.13636462        47040 
 1511500   0.99916062    4.3306533    1.4986941    5.8293474   -0.1431931   -0.1431931        47040 
 1512000   0.99569716    4.3255542    1.4934991    5.8190533 -0.074290897 -0.074290897        47040 
 1512500   0.99676139    4.3384276    1.4950954    5.8335229 -0.083006935 -0.083006935        47040 
 1513000    1.0082497    4.3380208    1.5123272     5.850348 -0.087436992 -0.087436992        47040 
 1513500    1.0069613     4.327311    1.5103948    5.8377058  -0.11806957  -0.11806957        47040 
 1514000    1.0037798    4.3321953    1.5056227    5.8378179  -0.11483232  -0.11483232        47040 
 1514500    1.0054026    4.3370394    1.5080567    5.8450961 -0.085205148 -0.085205148        47040 
 1515000    1.0068735    4.3298657     1.510263    5.8401287 -0.086080596 -0.086080596        47040 
 1515500    1.0007212    4.3441797    1.5010349    5.8452145 0.0028523708 0.0028523708        47040 
 1516000     1.003737     4.342262    1.5055585    5.8478205 -0.045032773 -0.045032773        47040 
 1516500    1.0038894    4.3449381    1.5057871    5.8507251  -0.12492552  -0.12492552        47040 
 1517000    1.0048301    4.3554142     1.507198    5.8626122  -0.11419529  -0.11419529        47040 
 1517500    1.0007572    4.3489167    1.5010888    5.8500055 -0.083301064 -0.083301064        47040 
 1518000     1.003404    4.3456871     1.505059     5.850746 -0.032962423 -0.032962423        47040 
 1518500   0.98826852    4.3359861    1.4823565    5.8183426   -0.1240855   -0.1240855        47040 
 1519000   0.99663507    4.3367784    1.4949059    5.8316843 -0.090431187 -0.090431187        47040 
 1519500   0.99570664    4.3399073    1.4935133    5.8334206 -0.090831771 -0.090831771        47040 
 1520000    1.0017855    4.3267711    1.5026313    5.8294024 -0.081511664 -0.081511664        47040 
 1520500    1.0082284    4.3243632    1.5122953    5.8366585 -0.054313607 -0.054313607        47040 
 1521000   0.99985734    4.3403364    1.4997391    5.8400756 -0.098504538 -0.098504538        47040 
 1521500      1.00681    4.3253083    1.5101677     5.835476  -0.12181126  -0.12181126        47040 
 1522000     1.001647    4.3424245    1.5024236    5.8448482   -0.1098681   -0.1098681        47040 
 1522500    1.0056048    4.3419449    1.5083601    5.8503049  -0.11114111  -0.11114111        47040 
 1523000    1.0007355    4.3368459    1.5010563    5.8379022 -0.093070373 -0.093070373        47040 
 1523500   0.99811478    4.3314773    1.4971254    5.8286027 -0.097740997 -0.097740997        47040 
 1524000     1.002853    4.3313647    1.5042324    5.8355971 -0.058418097 -0.058418097        47040 
 1524500    1.0028157    4.3443145    1.5041766    5.8484911  -0.14378245  -0.14378245        47040 
 1525000    1.0013561    4.3478783    1.5019872    5.8498655 -0.061061458 -0.061061458        47040 
 1525500    1.0058084    4.3562944    1.5086654    5.8649598  -0.07357249  -0.07357249        47040 
 1526000    1.0032395    4.3524744    1.5048122    5.8572867  -0.11291655  -0.11291655        47040 
 1526500     1.007944    4.3402662    1.5118687     5.852135  -0.12019795  -0.12019795        47040 
 1527000   0.99782763    4.3482008    1.4966947    5.8448955  -0.17063453  -0.17063453        47040 
 1527500    1.0021099    4.3394286    1.5031179    5.8425466  -0.13913197  -0.13913197        47040 
 1528000    0.9994426    4.3518427    1.4991171    5.8509597 -0.099261251 -0.099261251        47040 
 1528500    1.0061723    4.3449818    1.5092113    5.8541931  -0.13088553  -0.13088553        47040 
 1529000    1.0085466     4.348628    1.5127726    5.8614006  -0.11910169  -0.11910169        47040 
 1529500    1.0005125    4.3346013    1.5007218    5.8353232  -0.11044348  -0.11044348        47040 
 1530000   0.99083546    4.3465621    1.4862067    5.8327688  -0.18525272  -0.18525272        47040 
 1530500     1.003031    4.3496953    1.5044994    5.8541948  -0.10249748  -0.10249748        47040 
 1531000    1.0002165    4.3537263    1.5002778    5.8540041 -0.084020778 -0.084020778        47040 
 1531500   0.99803341    4.3399926    1.4970033     5.836996  -0.10267428  -0.10267428        47040 
 1532000   0.99649283    4.3425435    1.4946925     5.837236  -0.09057951  -0.09057951        47040 
 1532500    1.0010499    4.3414215    1.5015279    5.8429494 -0.084959558 -0.084959558        47040 
 1533000    1.0043738    4.3360778    1.5065136    5.8425914   -0.1031102   -0.1031102        47040 
 1533500    1.0009287    4.3377493    1.5013461    5.8390954 -0.062826377 -0.062826377        47040 
 1534000     1.003703    4.3332343    1.5055075    5.8387418  -0.10208886  -0.10208886        47040 
 1534500    1.0073151    4.3324129    1.5109255    5.8433383  -0.17894867  -0.17894867        47040 
 1535000   0.99435766    4.3512137    1.4914899    5.8427036  -0.13051003  -0.13051003        47040 
 1535500   0.99999236    4.3433848    1.4999417    5.8433265  -0.14459706  -0.14459706        47040 
 1536000     1.000623    4.3450653    1.5008876    5.8459529 -0.050826376 -0.050826376        47040 
 1536500    1.0086475    4.3275114     1.512924    5.8404354  -0.10630157  -0.10630157        47040 
 1537000    1.0046426     4.335318    1.5069168    5.8422348  -0.10731094  -0.10731094        47040 
 1537500    1.0002401    4.3435159    1.5003132    5.8438291  -0.11065446  -0.11065446        47040 
 1538000   0.99573624    4.3340797    1.4935577    5.8276374  -0.12143135  -0.12143135        47040 
 1538500   0.99319081    4.3575618    1.4897397    5.8473015 -0.096508307 -0.096508307        47040 
 1539000    1.0044693    4.3553916    1.5066569    5.8620485  -0.11519617  -0.11519617        47040 
 1539500   0.99479727    4.3520386    1.4921493    5.8441879  -0.10821989  -0.10821989        47040 
 1540000   0.99732086    4.3512742    1.4959345    5.8472088  -0.14771416  -0.14771416        47040 
 1540500    1.0076521    4.3604995    1.5114309    5.8719304  -0.10624408  -0.10624408        47040 
 1541000   0.99748126    4.3548652    1.4961751    5.8510403  -0.11193136  -0.11193136        47040 
 1541500    1.0077548    4.3358128    1.5115849    5.8473977 -0.089930873 -0.089930873        47040 
 1542000    1.0029255    4.3316431    1.5043412    5.8359844 -0.051369502 -0.051369502        47040 
 1542500    1.0006902    4.3372002    1.5009883    5.8381886 -0.078090894 -0.078090894        47040 
 1543000    1.0001784    4.3470674    1.5002207    5.8472881 -0.092499541 -0.092499541        47040 
 1543500    1.0044204    4.3385521    1.5065836    5.8451356  -0.11492442  -0.11492442        47040 
 1544000    1.0014763    4.3489772    1.5021675    5.8511447 -0.086146893 -0.086146893        47040 
 1544500   0.99863314    4.3361422    1.4979029    5.8340451 -0.080397008 -0.080397008        47040 
 1545000    1.0016718    4.3290572    1.5024608     5.831518  -0.16601381  -0.16601381        47040 
 1545500   0.99542444    4.3346629      1.49309    5.8277529  -0.10049387  -0.10049387        47040 
 1546000    1.0022479     4.340497    1.5033248    5.8438218  -0.13035434  -0.13035434        47040 
 1546500    1.0018418    4.3351851    1.5027157    5.8379008 -0.059394587 -0.059394587        47040 
 1547000    1.0006747    4.3436062    1.5009651    5.8445714 -0.069895697 -0.069895697        47040 
 1547500    1.0063052    4.3332466    1.5094107    5.8426573 -0.068901596 -0.068901596        47040 
 1548000    1.0025588    4.3416566    1.5037911    5.8454477 -0.058980102 -0.058980102        47040 
 1548500   0.99956514    4.3331341    1.4993009     5.832435 -0.086625423 -0.086625423        47040 
 1549000   0.99422682    4.3361846    1.4912936    5.8274782 -0.086414789 -0.086414789        47040 
 1549500   0.99790495    4.3425301    1.4968106    5.8393408  -0.13089831  -0.13089831        47040 
 1550000   0.99208593    4.3368327    1.4880824    5.8249151  -0.10968384  -0.10968384        47040 
 1550500   0.99786791    4.3474758    1.4967551    5.8442309 -0.091721047 -0.091721047        47040 
 1551000   0.99488083    4.3444851    1.4922746    5.8367597 -0.092026523 -0.092026523        47040 
 1551500   0.98902764    4.3515161    1.4834951    5.8350112 -0.075660709 -0.075660709        47040 
 1552000   0.98747991    4.3343451    1.4811736    5.8155187 -0.087391959 -0.087391959        47040 
 1552500    1.0014012     4.342396    1.5020549    5.8444509  -0.12969537  -0.12969537        47040 
 1553000   0.99366354    4.3552873    1.4904487     5.845736 -0.074222352 -0.074222352        47040 
 1553500    0.9990155    4.3450466    1.4984764     5.843523 -0.078363728 -0.078363728        47040 
 1554000    1.0029627    4.3455243     1.504397    5.8499213 -0.077790073 -0.077790073        47040 
 1554500    1.0080387    4.3328855    1.5120108    5.8448963 -0.092936136 -0.092936136        47040 
 1555000    1.0046232    4.3410642    1.5068876    5.8479518  -0.11460925  -0.11460925        47040 
 1555500    1.0017566    4.3348034    1.5025879    5.8373913 -0.016089994 -0.016089994        47040 
 1556000     1.009981    4.3224963    1.5149241    5.8374205 -0.090821466 -0.090821466        47040 
 1556500       1.0065     4.323565    1.5097029    5.8332679 -0.056924094 -0.056924094        47040 
 1557000    1.0048916    4.3250227    1.5072903    5.8323131 -0.023398345 -0.023398345        47040 
 1557500    1.0071915    4.3341718    1.5107401    5.8449119   -0.1121827   -0.1121827        47040 
 1558000    1.0059338    4.3424325    1.5088536    5.8512861 -0.087653556 -0.087653556        47040 
 1558500    1.0089508    4.3433851    1.5133788    5.8567639 -0.061031634 -0.061031634        47040 
 1559000     1.003844    4.3353899    1.5057189    5.8411089  -0.15132275  -0.15132275        47040 
 1559500   0.99908878    4.3378495    1.4985863    5.8364359   -0.2052494   -0.2052494        47040 
 1560000   0.99774225    4.3423759    1.4965666    5.8389425  -0.13131496  -0.13131496        47040 
 1560500   0.99921828    4.3320341    1.4987806    5.8308147 -0.061252098 -0.061252098        47040 
 1561000   0.99678038    4.3271458    1.4951238    5.8222697 -0.046916733 -0.046916733        47040 
 1561500   0.99817067     4.329223    1.4972092    5.8264322 -0.067579247 -0.067579247        47040 
 1562000   0.99427146    4.3401848    1.4913606    5.8315454 -0.028304395 -0.028304395        47040 
 1562500    1.0007584    4.3383123    1.5010906    5.8394029  -0.17560777  -0.17560777        47040 
 1563000    1.0039532    4.3400707    1.5058827    5.8459535 -0.097358091 -0.097358091        47040 
 1563500   0.99921845     4.343049    1.4987808    5.8418298 -0.032453442 -0.032453442        47040 
 1564000   0.99720168     4.349343    1.4957558    5.8450987 -0.074265538 -0.074265538        47040 
 1564500    1.0039813    4.3432219    1.5059249    5.8491468 -0.099830128 -0.099830128        47040 
 1565000    1.0058356    4.3444574    1.5087062    5.8531636 -0.085414707 -0.085414707        47040 
 1565500    1.0033514    4.3381011    1.5049801    5.8430812  -0.12011583  -0.12011583        47040 
 1566000    1.0037062    4.3379433    1.5055122    5.8434555 -0.041241323 -0.041241323        47040 
 1566500   0.99657789    4.3345157    1.4948201    5.8293358 -0.076934694 -0.076934694        47040 
 1567000   0.99796967    4.3359228    1.4969077    5.8328305 -0.077624471 -0.077624471        47040 
 1567500   0.99816002    4.3384675    1.4971932    5.8356607  -0.11402975  -0.11402975        47040 
 1568000     1.006906    4.3278602    1.5103118     5.838172 -0.056972689 -0.056972689        47040 
 1568500    1.0010224    4.3329861    1.5014867    5.8344728 -0.082372324 -0.082372324        47040 
 1569000    1.0021019    4.3251007    1.5031059    5.8282066  -0.13548981  -0.13548981        47040 
 1569500    0.9904405    4.3347196    1.4856143    5.8203339 -0.069766797 -0.069766797        47040 
 1570000   0.99104308    4.3469057    1.4865182    5.8334239  -0.12050351  -0.12050351        47040 
 1570500   0.99991012    4.3339096    1.4998183    5.8337279 -0.096183994 -0.096183994        47040 
 1571000   0.99910295    4.3316062    1.4986076    5.8302138 -0.057379717 -0.057379717        47040 
 1571500   0.99288185     4.337504    1.4892762    5.8267802 -0.076092422 -0.076092422        47040 
 1572000   0.99815453    4.3276016     1.497185    5.8247867 -0.097493658 -0.097493658        47040 
 1572500    1.0015677    4.3234792    1.5023046    5.8257838 -0.056588682 -0.056588682        47040 
 1573000    1.0021096    4.3292449    1.5031174    5.8323623 -0.045384595 -0.045384595        47040 
 1573500     1.003529    4.3286184    1.5052464    5.8338648  -0.10750336  -0.10750336        47040 
 1574000   0.99526311    4.3204488     1.492848    5.8132969 -0.099190584 -0.099190584        47040 
 1574500     1.002555    4.3257348    1.5037855    5.8295203  -0.13341546  -0.13341546        47040 
 1575000   0.99798753    4.3279821    1.4969345    5.8249166  -0.13489457  -0.13489457        47040 
 1575500    1.0053415    4.3297765    1.5079652    5.8377417  -0.10836533  -0.10836533        47040 
 1576000   0.99996819    4.3299984    1.4999054    5.8299038 -0.078626015 -0.078626015        47040 
 1576500    1.0063658    4.3427567    1.5095015    5.8522582 -0.023718068 -0.023718068        47040 
 1577000    1.0028032    4.3338076    1.5041578    5.8379655   -0.1033761   -0.1033761        47040 
 1577500    1.0014511    4.3507961    1.5021297    5.8529259  -0.09359732  -0.09359732        47040 
 1578000    1.0017558    4.3463879    1.5025867    5.8489746    -0.140041    -0.140041        47040 
 1578500    1.0037424    4.3449913    1.5055666    5.8505579  -0.07468961  -0.07468961        47040 
 1579000    1.0084455    4.3365551     1.512621    5.8491761  -0.11351829  -0.11351829        47040 
 1579500    0.9974068    4.3444535    1.4960634     5.840517  -0.04365133  -0.04365133        47040 
 1580000    1.0014317    4.3366715    1.5021006    5.8387721  -0.12058031  -0.12058031        47040 
 1580500     1.006335    4.3257019    1.5094553    5.8351573 -0.091609307 -0.091609307        47040 
 1581000   0.99883144    4.3271219    1.4982003    5.8253222 -0.094235158 -0.094235158        47040 
 1581500   0.99591439    4.3466337    1.4938249    5.8404586  -0.11827197  -0.11827197        47040 
 1582000   0.99250353    4.3503792    1.4887088     5.839088  -0.13667821  -0.13667821        47040 
 1582500   0.99754044     4.333788    1.4962639     5.830052 -0.087140597 -0.087140597        47040 
 1583000    1.0010403    4.3316147    1.5015136    5.8331283   -0.1219477   -0.1219477        47040 
 1583500   0.99526428     4.345993    1.4928498    5.8388428 -0.086992572 -0.086992572        47040 
 1584000   0.99663953    4.3363437    1.4949126    5.8312563 -0.055518402 -0.055518402        47040 
 1584500     1.002958    4.3233667      1.50439    5.8277567  -0.14829636  -0.14829636        47040 
 1585000   0.99543058    4.3302332    1.4930992    5.8233324  -0.10803363  -0.10803363        47040 
 1585500   0.99937025    4.3446111    1.4990085    5.8436197  -0.12554495  -0.12554495        47040 
 1586000    1.0016956    4.3398329    1.5024965    5.8423293  -0.12934953  -0.12934953        47040 
 1586500   0.99747752    4.3379543    1.4961695    5.8341239  -0.15520812  -0.15520812        47040 
 1587000   0.99819153    4.3402633    1.4972405    5.8375038 -0.078756417 -0.078756417        47040 
 1587500    1.0005403    4.3341885    1.5007636    5.8349521 -0.087368417 -0.087368417        47040 
 1588000   0.99610097    4.3376279    1.4941048    5.8317327  -0.16697745  -0.16697745        47040 
 1588500   0.99849738     4.337716    1.4976993    5.8354153  -0.13590636  -0.13590636        47040 
 1589000      0.99817    4.3404164    1.4972082    5.8376246 -0.057653979 -0.057653979        47040 
 1589500    0.9971022    4.3502236    1.4956066    5.8458302 -0.031157702 -0.031157702        47040 
 1590000    1.0002212    4.3584885    1.5002849    5.8587735   -0.1056481   -0.1056481        47040 
 1590500    1.0047662    4.3476152    1.5071022    5.8547174  -0.12394066  -0.12394066        47040 
 1591000    1.0049957    4.3489165    1.5074465     5.856363 -0.099061842 -0.099061842        47040 
 1591500   0.99541285    4.3356877    1.4930726    5.8287604 -0.089356614 -0.089356614        47040 
 1592000   0.99710696    4.3307025    1.4956137    5.8263162 -0.091243843 -0.091243843        47040 
 1592500   0.99868466    4.3262711    1.4979802    5.8242513   -0.1236421   -0.1236421        47040 
 1593000   0.99770402    4.3325139    1.4965093    5.8290231  -0.10527507  -0.10527507        47040 
 1593500   0.99380128    4.3444296    1.4906553     5.835085  -0.09853089  -0.09853089        47040 
 1594000    1.0021923    4.3566466    1.5032415    5.8598881 -0.068103478 -0.068103478        47040 
 1594500    0.9932988    4.3349424    1.4899016     5.824844  -0.20794556  -0.20794556        47040 
 1595000   0.99679498     4.345372    1.4951457    5.8405178  -0.08659636  -0.08659636        47040 
 1595500    1.0001595     4.348399    1.5001923    5.8485914  -0.12129385  -0.12129385        47040 
 1596000    1.0012151    4.3510783    1.5017757     5.852854  -0.12157527  -0.12157527        47040 
 1596500   0.99597456    4.3575898    1.4939152     5.851505  -0.13500995  -0.13500995        47040 
 1597000   0.99587248    4.3551911     1.493762    5.8489531  -0.11146051  -0.11146051        47040 
 1597500   0.99897966    4.3445496    1.4984227    5.8429722  -0.18472682  -0.18472682        47040 
 1598000    1.0000566    4.3456559    1.5000381     5.845694  -0.12679372  -0.12679372        47040 
 1598500    1.0002669     4.349546    1.5003535    5.8498995  -0.13585784  -0.13585784        47040 
 1599000    1.0019023    4.3445132    1.5028065    5.8473197 -0.068110861 -0.068110861        47040 
 1599500    1.0075437    4.3484948    1.5112683    5.8597631 -0.074192262 -0.074192262        47040 
 1600000   0.99653194    4.3393942    1.4947512    5.8341454  -0.10046648  -0.10046648        47040 
 1600500     0.997205    4.3415881    1.4957608    5.8373489 -0.076420124 -0.076420124        47040 
 1601000   0.99799122    4.3575477      1.49694    5.8544878  -0.11373609  -0.11373609        47040 
 1601500   0.99196318    4.3552134    1.4878983    5.8431117  -0.18151933  -0.18151933        47040 
 1602000   0.99623043    4.3414555    1.4942989    5.8357544  -0.11894093  -0.11894093        47040 
 1602500   0.99526032    4.3487027    1.4928438    5.8415466  -0.13204594  -0.13204594        47040 
 1603000   0.99696779    4.3526918     1.495405    5.8480967  -0.10783258  -0.10783258        47040 
 1603500   0.99320247    4.3403273    1.4897571    5.8300844  -0.10706269  -0.10706269        47040 
 1604000   0.99980548     4.331278    1.4996613    5.8309393 -0.094166034 -0.094166034        47040 
 1604500   0.99527832    4.3378316    1.4928708    5.8307024  -0.01461712  -0.01461712        47040 
 1605000   0.99842737    4.3375819    1.4975943    5.8351762 -0.041935686 -0.041935686        47040 
 1605500    1.0048547     4.322696     1.507235     5.829931 -0.024712188 -0.024712188        47040 
 1606000   0.99779476    4.3324971    1.4966454    5.8291425 -0.049868107 -0.049868107        47040 
 1606500   0.99534382     4.340179    1.4929691    5.8331481 -0.078094727 -0.078094727        47040 
 1607000    0.9903865     4.343465    1.4855333    5.8289983  -0.12853017  -0.12853017        47040 
 1607500    1.0044429     4.338325    1.5066172    5.8449422 -0.083478228 -0.083478228        47040 
 1608000   0.99699681    4.3614794    1.4954485    5.8569279  -0.10566745  -0.10566745        47040 
 1608500    1.0015521    4.3634869    1.5022812    5.8657681  -0.11244267  -0.11244267        47040 
 1609000    1.0007526    4.3442455     1.501082    5.8453275 -0.094719842 -0.094719842        47040 
 1609500     1.009705    4.3373891    1.5145102    5.8518993 -0.091285289 -0.091285289        47040 
 1610000   0.99395977    4.3395058    1.4908931    5.8303988 -0.060791805 -0.060791805        47040 
 1610500   0.99887256    4.3418793     1.498262    5.8401413 -0.094636303 -0.094636303        47040 
 1611000   0.99698195    4.3444832    1.4954262    5.8399093 -0.099047765 -0.099047765        47040 
 1611500    1.0020734    4.3420397    1.5030631    5.8451028 -0.075323523 -0.075323523        47040 
 1612000     1.000098    4.3529856    1.5001001    5.8530857 -0.099605729 -0.099605729        47040 
 1612500    0.9973574    4.3502959    1.4959893    5.8462852 -0.095618627 -0.095618627        47040 
 1613000    1.0045215    4.3339896    1.5067352    5.8407248  -0.12518607  -0.12518607        47040 
 1613500    1.0027639    4.3354482    1.5040989    5.8395472   -0.0727504   -0.0727504        47040 
 1614000    1.0036333    4.3404815    1.5054028    5.8458844 -0.052029913 -0.052029913        47040 
 1614500   0.99693435    4.3373009    1.4953548    5.8326557 -0.099444594 -0.099444594        47040 
 1615000    1.0030179    4.3332222    1.5044798     5.837702 -0.087033287 -0.087033287        47040 
 1615500    1.0093327    4.3476871    1.5139518    5.8616389 -0.083643068 -0.083643068        47040 
 1616000    1.0036364    4.3378364    1.5054075    5.8432439  -0.11257107  -0.11257107        47040 
 1616500    1.0028182    4.3380264    1.5041803    5.8422068  -0.14789598  -0.14789598        47040 
 1617000   0.99063846    4.3565296    1.4859112    5.8424408  -0.12413046  -0.12413046        47040 
 1617500   0.99386604    4.3579786    1.4907525    5.8487311  -0.14174866  -0.14174866        47040 
 1618000    0.9978737    4.3584425    1.4967638    5.8552063  -0.13812033  -0.13812033        47040 
 1618500     1.003019    4.3439851    1.5044815    5.8484666  -0.11704641  -0.11704641        47040 
 1619000    1.0055223    4.3446349    1.5082364    5.8528713 -0.061957077 -0.061957077        47040 
 1619500   0.98939534     4.333815    1.4840466    5.8178616  -0.15714098  -0.15714098        47040 
 1620000   0.99196498    4.3333984     1.487901    5.8212994  -0.13995985  -0.13995985        47040 
 1620500   0.99282098    4.3392878    1.4891849    5.8284727 -0.042169182 -0.042169182        47040 
 1621000    1.0034004    4.3317435    1.5050535     5.836797 -0.061681923 -0.061681923        47040 
 1621500     1.003016    4.3332506     1.504477    5.8377276  -0.15092437  -0.15092437        47040 
 1622000   0.99525599     4.345047    1.4928373    5.8378844  -0.14272731  -0.14272731        47040 
 1622500   0.99865521    4.3434943     1.497936    5.8414303 -0.028989476 -0.028989476        47040 
 1623000    1.0036557    4.3461568    1.5054365    5.8515933  -0.12112058  -0.12112058        47040 
 1623500    1.0059052    4.3427265    1.5088107    5.8515371  -0.05055434  -0.05055434        47040 
 1624000   0.99922355    4.3265852    1.4987885    5.8253736  -0.10025728  -0.10025728        47040 
 1624500   0.99393967    4.3471758    1.4908629    5.8380387   -0.1027213   -0.1027213        47040 
 1625000   0.99810266    4.3419116    1.4971072    5.8390188  -0.10982719  -0.10982719        47040 
 1625500   0.99979117    4.3472048    1.4996399    5.8468447 -0.090723535 -0.090723535        47040 
 1626000    1.0107594    4.3426654    1.5160918    5.8587571 -0.081721998 -0.081721998        47040 
 1626500    1.0012515    4.3490332    1.5018303    5.8508634  -0.11840469  -0.11840469        47040 
 1627000    1.0049683    4.3365779    1.5074053    5.8439832  -0.12237697  -0.12237697        47040 
 1627500   0.99463528    4.3421742    1.4919063    5.8340805  -0.11211969  -0.11211969        47040 
 1628000    1.0058374    4.3326552     1.508709    5.8413642 -0.092217196 -0.092217196        47040 
 1628500    0.9929492    4.3462465    1.4893773    5.8356237 -0.090925878 -0.090925878        47040 
 1629000   0.99928587    4.3448753     1.498882    5.8437573   -0.1397564   -0.1397564        47040 
 1629500    1.0004856    4.3430222    1.5006815    5.8437036  -0.11249032  -0.11249032        47040 
 1630000    1.0016209     4.344353    1.5023845    5.8467375  -0.10867226  -0.10867226        47040 
 1630500   0.99608909    4.3213329     1.494087    5.8154199  -0.13968316  -0.13968316        47040 
 1631000     1.000362    4.3384362    1.5004961    5.8389324 -0.071840086 -0.071840086        47040 
 1631500    1.0001402    4.3319424    1.5001634    5.8321058 -0.075777016 -0.075777016        47040 
 1632000   0.99411296    4.3364895    1.4911228    5.8276124  -0.11972056  -0.11972056        47040 
 1632500    1.0001063    4.3309754    1.5001126    5.8310879  -0.15306391  -0.15306391        47040 
 1633000    1.0041426     4.343137    1.5061669    5.8493038 -0.066407125 -0.066407125        47040 
 1633500   0.99737952    4.3431661    1.4960225    5.8391886 -0.081490717 -0.081490717        47040 
 1634000   0.99923134    4.3332452    1.4988002    5.8320454 -0.074769506 -0.074769506        47040 
 1634500   0.99762164    4.3385404    1.4963857    5.8349261 -0.063531023 -0.063531023        47040 
 1635000   0.99781285    4.3320614    1.4966725    5.8287339  -0.08166807  -0.08166807        47040 
 1635500    1.0008252    4.3405917    1.5011909    5.8417827 -0.067601749 -0.067601749        47040 
 1636000   0.99963341    4.3403224    1.4994033    5.8397256 -0.094660013 -0.094660013        47040 
 1636500    1.0033915    4.3479316    1.5050402    5.8529718  -0.11254945  -0.11254945        47040 
 1637000    1.0006647    4.3481784    1.5009502    5.8491286  -0.10698204  -0.10698204        47040 
 1637500    1.0049636    4.3463269    1.5073984    5.8537252  -0.12343422  -0.12343422        47040 
 1638000    1.0039883    4.3557671    1.5059354    5.8617025 -0.099843245 -0.099843245        47040 
 1638500    1.0028087    4.3436264     1.504166    5.8477924 -0.065092166 -0.065092166        47040 
 1639000    1.0037725    4.3421647    1.5056117    5.8477764 -0.069160096 -0.069160096        47040 
 1639500    1.0028996    4.3381152    1.5043023    5.8424176  -0.08888692  -0.08888692        47040 
 1640000    1.0025782    4.3386477    1.5038203    5.8424681 -0.042153189 -0.042153189        47040 
 1640500   0.99541105    4.3478004    1.4930699    5.8408703 -0.0022594571 -0.0022594571        47040 
 1641000   0.99738978    4.3424091    1.4960379     5.838447  -0.13507822  -0.13507822        47040 
 1641500   0.99257621     4.351226    1.4888178    5.8400437 -0.098608509 -0.098608509        47040 
 1642000   0.99391952    4.3384337    1.4908327    5.8292664  -0.14337963  -0.14337963        47040 
 1642500   0.99805628    4.3423065    1.4970376    5.8393441  -0.06867637  -0.06867637        47040 
 1643000     0.999595    4.3456914    1.4993457     5.845037  -0.11244961  -0.11244961        47040 
 1643500    0.9986776    4.3450246    1.4979696    5.8429942 -0.062499475 -0.062499475        47040 
 1644000    1.0097432    4.3332454    1.5145675    5.8478129 -0.048051729 -0.048051729        47040 
 1644500    1.0020436    4.3376044    1.5030184    5.8406227 -0.084770253 -0.084770253        47040 
 1645000    1.0041292    4.3364116    1.5061467    5.8425583  -0.12265236  -0.12265236        47040 
 1645500   0.99618176    4.3491973    1.4942259    5.8434232  -0.11328018  -0.11328018        47040 
 1646000   0.99792164    4.3382075    1.4968357    5.8350432  -0.21558985  -0.21558985        47040 
 1646500   0.99609165    4.3413059    1.4940908    5.8353967  -0.14986716  -0.14986716        47040 
 1647000    1.0034952    4.3358685    1.5051958    5.8410643 -0.088083572 -0.088083572        47040 
 1647500    1.0040827    4.3320779    1.5060771     5.838155   -0.1111342   -0.1111342        47040 
 1648000    1.0079542    4.3339843     1.511884    5.8458682 -0.077410578 -0.077410578        47040 
 1648500    1.0067123    4.3343187    1.5100213      5.84434  -0.15230877  -0.15230877        47040 
 1649000    1.0042945    4.3321877    1.5063947    5.8385823  -0.13885158  -0.13885158        47040 
 1649500   0.99962391    4.3530585     1.499389    5.8524476  -0.11392464  -0.11392464        47040 
 1650000   0.99728644     4.349947    1.4958829      5.84583 -0.059451268 -0.059451268        47040 
 1650500   0.99907372    4.3463132    1.4985637    5.8448769  -0.15041418  -0.15041418        47040 
 1651000    1.0057671    4.3386674    1.5086035    5.8472709  -0.14708393  -0.14708393        47040 
 1651500    1.0000676    4.3460938    1.5000545    5.8461483 -0.090263121 -0.090263121        47040 
 1652000   0.99812418    4.3341723    1.4971395    5.8313117  -0.10873684  -0.10873684        47040 
 1652500   0.99888632    4.3409084    1.4982827    5.8391911 -0.071550646 -0.071550646        47040 
 1653000    1.0022235      4.34611    1.5032883    5.8493982 -0.072974513 -0.072974513        47040 
 1653500   0.99939531    4.3520071    1.4990461    5.8510532  -0.10800351  -0.10800351        47040 
 1654000    1.0013594    4.3450369    1.5019921     5.847029  -0.13672493  -0.13672493        47040 
 1654500    1.0063282    4.3606046    1.5094451    5.8700498 -0.082783006 -0.082783006        47040 
 1655000    1.0057245    4.3533525    1.5085396    5.8618921 -0.065225654 -0.065225654        47040 
 1655500    1.0012273    4.3534865     1.501794    5.8552805 -0.080023247 -0.080023247        47040 
 1656000    1.0000279    4.3455503    1.4999949    5.8455452 -0.096549146 -0.096549146        47040 
 1656500      1.00271    4.3426158    1.5040181    5.8466338  -0.10492223  -0.10492223        47040 
 1657000    1.0018225    4.3518645    1.5026867    5.8545512  -0.07951186  -0.07951186        47040 
 1657500   0.99779522    4.3460342    1.4966461    5.8426802  -0.09593334  -0.09593334        47040 
 1658000   0.99656032    4.3409005    1.4947938    5.8356942  -0.12622556  -0.12622556        47040 
 1658500    0.9988578    4.3455633    1.4982399    5.8438032 -0.087159967 -0.087159967        47040 
 1659000   0.99539605    4.3579477    1.4930474    5.8509951  -0.11035061  -0.11035061        47040 
 1659500    1.0035939    4.3489787    1.5053438    5.8543226 -0.096117304 -0.096117304        47040 
 1660000   0.99948663    4.3414368    1.4991831    5.8406199  -0.17534421  -0.17534421        47040 
 1660500   0.99935085    4.3518356    1.4989794    5.8508151  -0.11398302  -0.11398302        47040 
 1661000   0.99757802    4.3552364    1.4963203    5.8515566  -0.18078553  -0.18078553        47040 
 1661500   0.99686171    4.3488193    1.4952458    5.8440652  -0.12103566  -0.12103566        47040 
 1662000    1.0002774    4.3523048    1.5003692     5.852674  -0.15314938  -0.15314938        47040 
 1662500    1.0034236    4.3551387    1.5050883     5.860227  -0.11473751  -0.11473751        47040 
 1663000    1.0027541    4.3477779    1.5040842    5.8518621 -0.082471831 -0.082471831        47040 
 1663500    1.0057052    4.3473852    1.5085106    5.8558958  -0.13293335  -0.13293335        47040 
 1664000   0.98824102    4.3336418    1.4823152     5.815957  -0.13212932  -0.13212932        47040 
 1664500    1.0040463     4.343731    1.5060223    5.8497534  -0.10204405  -0.10204405        47040 
 1665000   0.99990812    4.3414809    1.4998153    5.8412962 -0.072251805 -0.072251805        47040 
 1665500    1.0006638    4.3549268    1.5009487    5.8558755 -0.057797755 -0.057797755        47040 
 1666000    1.0021783    4.3545438    1.5032205    5.8577643 -0.082590133 -0.082590133        47040 
 1666500    1.0020858    4.3509042    1.5030818    5.8539859 -0.065102412 -0.065102412        47040 
 1667000    1.0079776    4.3395464    1.5119192    5.8514656  -0.12572375  -0.12572375        47040 
 1667500   0.99598154    4.3450221    1.4939256    5.8389478 -0.081748824 -0.081748824        47040 
 1668000   0.99700883    4.3474578    1.4954665    5.8429243 -0.063555335 -0.063555335        47040 
 1668500    1.0097691    4.3359318    1.5146064    5.8505382 -0.090768628 -0.090768628        47040 
 1669000    1.0002191     4.339039    1.5002818    5.8393208 -0.063852648 -0.063852648        47040 
 1669500   0.99459056     4.338394    1.4918392    5.8302332 -0.090024676 -0.090024676        47040 
 1670000    1.0048826    4.3361443    1.5072767    5.8434211  -0.10834575  -0.10834575        47040 
 1670500    1.0022665    4.3342861    1.5033527    5.8376388  -0.11037469  -0.11037469        47040 
 1671000   0.99457132    4.3355646    1.4918104     5.827375  -0.11736551  -0.11736551        47040 
 1671500   0.99919478     4.338839    1.4987453    5.8375843 -0.083052906 -0.083052906        47040 
 1672000   0.99950297    4.3269986    1.4992076    5.8262062 -0.095716215 -0.095716215        47040 
 1672500   0.99829544    4.3249499    1.4973964    5.8223463 -0.088386381 -0.088386381        47040 
 1673000   0.99537155    4.3440542    1.4930107    5.8370648 -0.055567679 -0.055567679        47040 
 1673500    1.0055687    4.3436417     1.508306    5.8519477 -0.096632555 -0.096632555        47040 
 1674000    1.0012989    4.3422503    1.5019014    5.8441517  -0.08771933  -0.08771933        47040 
 1674500   0.99156473    4.3528688    1.4873006    5.8401694 -0.037347153 -0.037347153        47040 
 1675000   0.99416879    4.3365881    1.4912066    5.8277947  -0.11614154  -0.11614154        47040 
 1675500   0.99393076     4.345543    1.4908495    5.8363926 -0.094417971 -0.094417971        47040 
 1676000   0.99951511    4.3383636    1.4992258    5.8375894  -0.03948492  -0.03948492        47040 
 1676500    1.0088361    4.3298668    1.5132069    5.8430736 -0.053262286 -0.053262286        47040 
 1677000    1.0011776    4.3424719    1.5017195    5.8441913 -0.040790422 -0.040790422        47040 
 1677500   0.99830162    4.3428044    1.4974056      5.84021  -0.12233341  -0.12233341        47040 
 1678000    1.0014818       4.3412    1.5021757    5.8433757 -0.060340056 -0.060340056        47040 
 1678500   0.99733643    4.3457602    1.4959579    5.8417181  -0.13287519  -0.13287519        47040 
 1679000   0.99706443    4.3435601    1.4955499      5.83911  -0.10564606  -0.10564606        47040 
 1679500   0.99738995    4.3381336    1.4960382    5.8341717  -0.07659359  -0.07659359        47040 
 1680000   0.99867239    4.3313581    1.4979618    5.8293198  -0.15886628  -0.15886628        47040 
 1680500    1.0011655    4.3303084    1.5017013    5.8320097   -0.1261169   -0.1261169        47040 
 1681000    1.0025551    4.3264769    1.5037857    5.8302626 -0.033319329 -0.033319329        47040 
 1681500    1.0032346    4.3447461    1.5048048    5.8495509  -0.11857268  -0.11857268        47040 
 1682000    1.0013452    4.3491386    1.5019709    5.8511095  -0.10462569  -0.10462569        47040 
 1682500   0.99283932    4.3460734    1.4892124    5.8352858 -0.062579325 -0.062579325        47040 
 1683000   0.99784633    4.3397709    1.4967227    5.8364936  -0.12456628  -0.12456628        47040 
 1683500   0.99276336    4.3428647    1.4890985    5.8319632  -0.09203821  -0.09203821        47040 
 1684000    1.0000035    4.3375865    1.4999584    5.8375449  -0.15849538  -0.15849538        47040 
 1684500     0.998596    4.3385811    1.4978472    5.8364283  -0.15776063  -0.15776063        47040 
 1685000   0.99841706    4.3412252    1.4975788     5.838804 -0.036985663 -0.036985663        47040 
 1685500    1.0116487    4.3361362    1.5174256    5.8535618 -0.091204806 -0.091204806        47040 
 1686000   0.99778701    4.3527745    1.4966337    5.8494083  -0.14424339  -0.14424339        47040 
 1686500    1.0015873    4.3426488     1.502334    5.8449828  -0.11998993  -0.11998993        47040 
 1687000    1.0005695    4.3378069    1.5008074    5.8386143 -0.074101901 -0.074101901        47040 
 1687500    1.0039402     4.336343    1.5058633    5.8422063  -0.10490819  -0.10490819        47040 
 1688000    1.0047428    4.3478279    1.5070671     5.854895 -0.084617099 -0.084617099        47040 
 1688500     1.004879    4.3409783    1.5072714    5.8482498 -0.088168676 -0.088168676        47040 
 1689000   0.99442342    4.3421304    1.4915885     5.833719  -0.11308897  -0.11308897        47040 
 1689500   0.99729384    4.3436962     1.495894    5.8395903  -0.15535756  -0.15535756        47040 
 1690000    1.0025113    4.3386053      1.50372    5.8423253  -0.15296191  -0.15296191        47040 
 1690500    0.9994021    4.3300022    1.4990563    5.8290585  -0.11432347  -0.11432347        47040 
 1691000   0.99634686    4.3336655    1.4944736     5.828139  -0.10145929  -0.10145929        47040 
 1691500   0.99347624    4.3390615    1.4901678    5.8292293  -0.14002204  -0.14002204        47040 
 1692000   0.99078134    4.3348588    1.4861256    5.8209844  -0.14954949  -0.14954949        47040 
 1692500   0.99779153    4.3297476    1.4966405    5.8263881 -0.089340192 -0.089340192        47040 
 1693000    1.0081983    4.3414948    1.5122501    5.8537449 -0.094189969 -0.094189969        47040 
 1693500   0.99755932    4.3388096    1.4962922    5.8351018 -0.084486813 -0.084486813        47040 
 1694000    1.0045785    4.3270045    1.5068206    5.8338251  -0.13531399  -0.13531399        47040 
 1694500    1.0038134    4.3238128    1.5056731    5.8294858  -0.14193009  -0.14193009        47040 
 1695000   0.99884541    4.3237339    1.4982213    5.8219552  -0.10071383  -0.10071383        47040 
 1695500    1.0032798    4.3345219    1.5048726    5.8393946   -0.1093272   -0.1093272        47040 
 1696000    1.0083699    4.3418362    1.5125076    5.8543438 -0.088263875 -0.088263875        47040 
 1696500   0.99972769    4.3446494    1.4995447    5.8441941 -0.062350619 -0.062350619        47040 
 1697000    1.0063521    4.3349686     1.509481    5.8444496  -0.10865432  -0.10865432        47040 
 1697500    1.0025117    4.3456401    1.5037205    5.8493607  -0.08830856  -0.08830856        47040 
 1698000   0.99446448    4.3428123    1.4916501    5.8344624 -0.080959384 -0.080959384        47040 
 1698500    0.9882364    4.3482905    1.4823083    5.8305987 -0.085523309 -0.085523309        47040 
 1699000     1.000422    4.3294379    1.5005861    5.8300239  -0.11982561  -0.11982561        47040 
 1699500   0.99552864    4.3367212    1.4932463    5.8299675 -0.061123421 -0.061123421        47040 
 1700000     1.008107      4.33028    1.5121133    5.8423933 -0.076944692 -0.076944692        47040 
 1700500    1.0080151    4.3248936    1.5119753    5.8368689 -0.082721007 -0.082721007        47040 
 1701000    1.0004564    4.3303836    1.5006377    5.8310213 -0.062926714 -0.062926714        47040 
 1701500   0.99895305    4.3363416    1.4983827    5.8347243  -0.10120911  -0.10120911        47040 
 1702000   0.99922793    4.3336903    1.4987951    5.8324854  -0.12375344  -0.12375344        47040 
 1702500   0.99321348    4.3343648    1.4897737    5.8241384   -0.1529704   -0.1529704        47040 
 1703000   0.99950214    4.3417862    1.4992064    5.8409926  -0.10822502  -0.10822502        47040 
 1703500     1.000778    4.3397666    1.5011201    5.8408867  -0.11731178  -0.11731178        47040 
 1704000    1.0062023    4.3383778    1.5092562    5.8476341  -0.12866775  -0.12866775        47040 
 1704500   0.98991145    4.3473845    1.4848208    5.8322053 -0.090886288 -0.090886288        47040 
 1705000   0.99663061     4.347483    1.4948992    5.8423822 -0.048191626 -0.048191626        47040 
 1705500   0.99236593    4.3520985    1.4885024    5.8406008 -0.093450291 -0.093450291        47040 
 1706000   0.99914101    4.3419207    1.4986647    5.8405854  -0.14119176  -0.14119176        47040 
 1706500   0.99970926    4.3483701     1.499517    5.8478871  -0.11621225  -0.11621225        47040 
 1707000   0.99662009    4.3535916    1.4948834     5.848475  -0.13988561  -0.13988561        47040 
 1707500   0.99894428     4.359483    1.4983696    5.8578526  -0.20171182  -0.20171182        47040 
 1708000    1.0020782    4.3526561    1.5030703    5.8557264  -0.13030783  -0.13030783        47040 
 1708500   0.99712102    4.3488685    1.4956348    5.8445033  -0.13042233  -0.13042233        47040 
 1709000    1.0035912    4.3479829    1.5053397    5.8533227 -0.078913228 -0.078913228        47040 
 1709500    1.0055133    4.3425991    1.5082229     5.850822   -0.0857572   -0.0857572        47040 
 1710000   0.99907511    4.3435451    1.4985658     5.842111 -0.053477642 -0.053477642        47040 
 1710500   0.99791655    4.3432908     1.496828    5.8401188 -0.047594614 -0.047594614        47040 
 1711000    0.9964194     4.344325    1.4945824    5.8389074  -0.12336922  -0.12336922        47040 
 1711500   0.99894939    4.3518778    1.4983773     5.850255  -0.11866764  -0.11866764        47040 
 1712000    1.0053951    4.3535302    1.5080455    5.8615758 -0.067783927 -0.067783927        47040 
 1712500    1.0057868    4.3408493    1.5086331    5.8494825  -0.15326883  -0.15326883        47040 
 1713000   0.99674772    4.3404149    1.4950749    5.8354897 -0.096838669 -0.096838669        47040 
 1713500    1.0032902     4.352973    1.5048883    5.8578612  -0.10942033  -0.10942033        47040 
 1714000   0.99430176    4.3512806     1.491406    5.8426866 -0.062291214 -0.062291214        47040 
 1714500   0.99579943    4.3343002    1.4936525    5.8279527 -0.082130072 -0.082130072        47040 
 1715000    1.0109719    4.3274046    1.5164104    5.8438151  -0.11559775  -0.11559775        47040 
 1715500   0.99480701    4.3433473    1.4921639    5.8355112  -0.12959131  -0.12959131        47040 
 1716000   0.99356879    4.3296579    1.4903066    5.8199645 -0.091350027 -0.091350027        47040 
 1716500   0.99345595     4.333197    1.4901374    5.8233344  -0.12836429  -0.12836429        47040 
 1717000   0.98774936    4.3381715    1.4815777    5.8197493 -0.092992737 -0.092992737        47040 
 1717500    1.0071541    4.3435559     1.510684    5.8542399  -0.16364204  -0.16364204        47040 
 1718000   0.99733977    4.3559275    1.4959629    5.8518904  -0.15911029  -0.15911029        47040 
 1718500   0.99660603    4.3511385    1.4948623    5.8460009  -0.12308575  -0.12308575        47040 
 1719000    1.0006918    4.3349995    1.5009908    5.8359903  -0.17668054  -0.17668054        47040 
 1719500    0.9941807    4.3429684    1.4912244    5.8341929  -0.09647121  -0.09647121        47040 
 1720000    1.0007854    4.3411206    1.5011312    5.8422518  -0.12124106  -0.12124106        47040 
 1720500    1.0068315    4.3398596       1.5102    5.8500596 -0.093327161 -0.093327161        47040 
 1721000     1.003467    4.3467352    1.5051534    5.8518886  -0.13697112  -0.13697112        47040 
 1721500    1.0080017    4.3482261    1.5119553    5.8601815 -0.089260337 -0.089260337        47040 
 1722000    1.0053888    4.3540956    1.5080361    5.8621317 -0.093247219 -0.093247219        47040 
 1722500    1.0003126    4.3546561    1.5004221    5.8550781 -0.049668197 -0.049668197        47040 
 1723000    1.0009741    4.3464084    1.5014142    5.8478226  -0.10199346  -0.10199346        47040 
 1723500    0.9953469    4.3593069    1.4929737    5.8522805 -0.085077288 -0.085077288        47040 
 1724000    1.0010019    4.3575078    1.5014559    5.8589637 -0.079095725 -0.079095725        47040 
 1724500   0.99415895    4.3464131    1.4911918    5.8376049  -0.12316596  -0.12316596        47040 
 1725000   0.99286556    4.3391497    1.4892518    5.8284015 -0.090621711 -0.090621711        47040 
 1725500   0.99634944     4.327918    1.4944775    5.8223954 -0.043125315 -0.043125315        47040 
 1726000   0.99617304    4.3173418    1.4942129    5.8115547 -0.096841808 -0.096841808        47040 
 1726500    1.0025989    4.3101607    1.5038514    5.8140121 -0.091042393 -0.091042393        47040 
 1727000   0.99204084    4.3227528    1.4880148    5.8107676 -0.098902152 -0.098902152        47040 
 1727500   0.99835096    4.3278189    1.4974796    5.8252986 -0.070789971 -0.070789971        47040 
 1728000     1.003738    4.3425678      1.50556    5.8481278 -0.072627165 -0.072627165        47040 
 1728500    1.0000686    4.3409807     1.500056    5.8410367 -0.066715258 -0.066715258        47040 
 1729000   0.99456198    4.3466499    1.4917964    5.8384462  -0.17634701  -0.17634701        47040 
 1729500    0.9905869    4.3477668    1.4858339    5.8336007  -0.12357357  -0.12357357        47040 
 1730000    1.0051378     4.358409    1.5076596    5.8660685  -0.16159358  -0.16159358        47040 
 1730500    1.0072621    4.3572681     1.510846    5.8681141 -0.068408735 -0.068408735        47040 
 1731000    1.0081492    4.3538521    1.5121765    5.8660286  -0.13238532  -0.13238532        47040 
 1731500    1.0033865    4.3571456    1.5050328    5.8621783  -0.11976331  -0.11976331        47040 
 1732000    1.0010261     4.350868    1.5014922    5.8523602 -0.091415711 -0.091415711        47040 
 1732500    1.0027167    4.3420448     1.504028    5.8460728 -0.090845437 -0.090845437        47040 
 1733000    1.0020508    4.3340518    1.5030292     5.837081  -0.12189939  -0.12189939        47040 
 1733500    1.0088508    4.3366701    1.5132288    5.8498989 -0.033388139 -0.033388139        47040 
 1734000    1.0017805    4.3364709    1.5026238    5.8390947 -0.080136573 -0.080136573        47040 
 1734500    0.9991468    4.3376985    1.4986734    5.8363718 -0.083501347 -0.083501347        47040 
 1735000    1.0018616    4.3261767    1.5027455    5.8289222  -0.14462699  -0.14462699        47040 
 1735500    0.9984246    4.3314176    1.4975901    5.8290077  -0.17173433  -0.17173433        47040 
 1736000   0.99119974    4.3384629    1.4867531     5.825216  -0.16277683  -0.16277683        47040 
 1736500    1.0008222    4.3605883    1.5011864    5.8617747  -0.13097539  -0.13097539        47040 
 1737000    1.0033887    4.3509361    1.5050361    5.8559722  -0.14732774  -0.14732774        47040 
 1737500   0.99972909    4.3559863    1.4995468     5.855533  -0.15538996  -0.15538996        47040 
 1738000   0.99751991    4.3561612    1.4962331    5.8523943  -0.15224724  -0.15224724        47040 
 1738500   0.99232369     4.360585     1.488439     5.849024  -0.12925079  -0.12925079        47040 
 1739000    1.0015913    4.3458543      1.50234    5.8481942 -0.077612923 -0.077612923        47040 
 1739500   0.99870628    4.3336967    1.4980126    5.8317093  -0.11346487  -0.11346487        47040 
 1740000   0.99195473    4.3486647    1.4878856    5.8365503  -0.18960995  -0.18960995        47040 
 1740500   0.99245861    4.3462505    1.4886414    5.8348919  -0.16193978  -0.16193978        47040 
 1741000   0.99690758    4.3399849    1.4953146    5.8352996  -0.14456174  -0.14456174        47040 
 1741500    0.9978433    4.3514807    1.4967182    5.8481989 -0.086109794 -0.086109794        47040 
 1742000     1.006075    4.3316657    1.5090654    5.8407312  -0.11421495  -0.11421495        47040 
 1742500    1.0009945    4.3352976    1.5014449    5.8367425  -0.05075809  -0.05075809        47040 
 1743000   0.98929257    4.3429137    1.4838925    5.8268062  -0.10251414  -0.10251414        47040 
 1743500   0.99462165    4.3406831    1.4918859    5.8325689  -0.10368838  -0.10368838        47040 
 1744000    1.0010101    4.3339161    1.5014682    5.8353843  -0.12727338  -0.12727338        47040 
 1744500    1.0080478    4.3376702    1.5120245    5.8496947 -0.098410853 -0.098410853        47040 
 1745000    0.9962095     4.352896    1.4942676    5.8471636  -0.10867965  -0.10867965        47040 
 1745500   0.99496418    4.3519156    1.4923996    5.8443152 -0.077018276 -0.077018276        47040 
 1746000    1.0054129    4.3447417    1.5080723     5.852814  -0.14643733  -0.14643733        47040 
 1746500    1.0031551    4.3403568    1.5046857    5.8450424  -0.13095177  -0.13095177        47040 
 1747000   0.99422962    4.3330233    1.4912978    5.8243211 -0.090513141 -0.090513141        47040 
 1747500    1.0009695    4.3255477    1.5014073     5.826955 -0.087503378 -0.087503378        47040 
 1748000   0.99282021    4.3322839    1.4891838    5.8214677  -0.12250151  -0.12250151        47040 
 1748500    1.0026247    4.3346639    1.5038901     5.838554 -0.063501277 -0.063501277        47040 
 1749000    1.0036656    4.3365118    1.5054514    5.8419632 -0.080370543 -0.080370543        47040 
 1749500    1.0050738    4.3435172    1.5075635    5.8510807  -0.06452499  -0.06452499        47040 
 1750000    1.0025871    4.3536868    1.5038337    5.8575205  -0.14360241  -0.14360241        47040 
 1750500   0.99848599    4.3529305    1.4976822    5.8506127  -0.07570125  -0.07570125        47040 
 1751000    1.0031988    4.3589034    1.5047511    5.8636546  -0.11200329  -0.11200329        47040 
 1751500    1.0087941     4.355394    1.5131438    5.8685378  -0.12612803  -0.12612803        47040 
 1752000    1.0039111     4.341212    1.5058196    5.8470316 -0.090225909 -0.090225909        47040 
 1752500   0.99630383    4.3487284     1.494409    5.8431375  -0.14581281  -0.14581281        47040 
 1753000   0.99471998    4.3422862    1.4920333    5.8343196  -0.17936918  -0.17936918        47040 
 1753500      0.99055    4.3393951    1.4857786    5.8251736  -0.10811299  -0.10811299        47040 
 1754000   0.99605473    4.3319327    1.4940354    5.8259681  -0.12452047  -0.12452047        47040 
 1754500    1.0012149    4.3448379    1.5017754    5.8466133 -0.069089303 -0.069089303        47040 
 1755000    0.9958259    4.3355955    1.4936922    5.8292877  -0.16898426  -0.16898426        47040 
 1755500   0.99744179    4.3322032    1.4961159    5.8283191  -0.11483184  -0.11483184        47040 
 1756000    1.0051644    4.3448541    1.5076995    5.8525535 -0.090227251 -0.090227251        47040 
 1756500    1.0028941    4.3441795    1.5042941    5.8484736 -0.059652893 -0.059652893        47040 
 1757000    1.0065125    4.3403801    1.5097215    5.8501016  -0.16426244  -0.16426244        47040 
 1757500    1.0069857    4.3418564    1.5104313    5.8522878 -0.086916587 -0.086916587        47040 
 1758000    1.0022725    4.3416794    1.5033617    5.8450411   -0.0933604   -0.0933604        47040 
 1758500   0.99553492    4.3388296    1.4932557    5.8320854  -0.12521707  -0.12521707        47040 
 1759000    1.0008555    4.3466833    1.5012363    5.8479196   -0.1074991   -0.1074991        47040 
 1759500   0.99635789    4.3509037    1.4944901    5.8453939 -0.042254407 -0.042254407        47040 
 1760000   0.99845931    4.3539045    1.4976422    5.8515467  -0.14550764  -0.14550764        47040 
 1760500    1.0015779    4.3461588    1.5023199    5.8484787  -0.12510497  -0.12510497        47040 
 1761000    1.0001319    4.3456951    1.5001509     5.845846   -0.1320432   -0.1320432        47040 
 1761500     1.001709    4.3298298    1.5025165    5.8323463 -0.077065138 -0.077065138        47040 
 1762000   0.99213101    4.3233617      1.48815    5.8115117  -0.15390648  -0.15390648        47040 
 1762500   0.99832469    4.3277997    1.4974402      5.82524  -0.03131561  -0.03131561        47040 
 1763000    1.0026694    4.3217463     1.503957    5.8257033  -0.11122844  -0.11122844        47040 
 1763500    1.0004227    4.3277928    1.5005871      5.82838 -0.098499724 -0.098499724        47040 
 1764000    1.0042562    4.3320118    1.5063373     5.838349 -0.080509335 -0.080509335        47040 
 1764500    1.0034041    4.3311222    1.5050592    5.8361813  -0.12155155  -0.12155155        47040 
 1765000   0.99933479     4.350391    1.4989553    5.8493463  -0.10749704  -0.10749704        47040 
 1765500   0.99894377    4.3599455    1.4983688    5.8583144  -0.11660912  -0.11660912        47040 
 1766000   0.99711601    4.3584039    1.4956273    5.8540312 -0.088583707 -0.088583707        47040 
 1766500    1.0016233    4.3457608     1.502388    5.8481488  -0.12678661  -0.12678661        47040 
 1767000    0.9979273    4.3549316    1.4968442    5.8517758  -0.10440654  -0.10440654        47040 
 1767500    1.0051135    4.3371154    1.5076231    5.8447385 -0.096862733 -0.096862733        47040 
 1768000     1.002821     4.343339    1.5041845    5.8475235 -0.097259976 -0.097259976        47040 
 1768500   0.99795685    4.3424579    1.4968885    5.8393464 -0.096481296 -0.096481296        47040 
 1769000     1.007649    4.3312377    1.5114263     5.842664  -0.14451932  -0.14451932        47040 
 1769500   0.99632578     4.345069     1.494442     5.839511 -0.088616819 -0.088616819        47040 
 1770000   0.99706417    4.3414336    1.4955495    5.8369831  -0.14736535  -0.14736535        47040 
 1770500   0.99866876     4.334616    1.4979563    5.8325723 -0.072574951 -0.072574951        47040 
 1771000   0.98842355    4.3451708     1.482589    5.8277597 -0.036835196 -0.036835196        47040 
 1771500   0.99500076    4.3310031    1.4924545    5.8234576  -0.13339244  -0.13339244        47040 
 1772000    1.0005574    4.3339345    1.5007892    5.8347236  -0.11030163  -0.11030163        47040 
 1772500   0.99550445    4.3352304      1.49321    5.8284404 -0.074480299 -0.074480299        47040 
 1773000   0.99872756    4.3321909    1.4980445    5.8302354  -0.08095506  -0.08095506        47040 
 1773500    1.0078568    4.3358322    1.5117379    5.8475701  -0.11657226  -0.11657226        47040 
 1774000    1.0084133    4.3457771    1.5125726    5.8583498  -0.13890753  -0.13890753        47040 
 1774500    1.0008133    4.3534771     1.501173    5.8546501 -0.031683543 -0.031683543        47040 
 1775000    1.0008345    4.3506492    1.5012048     5.851854  -0.10369417  -0.10369417        47040 
 1775500    1.0048918    4.3432953    1.5072907    5.8505859 -0.093927893 -0.093927893        47040 
 1776000    1.0022943    4.3437414    1.5033945     5.847136 -0.065468861 -0.065468861        47040 
 1776500   0.99826201     4.339676    1.4973462    5.8370223  -0.05582052  -0.05582052        47040 
 1777000   0.99523626    4.3437633    1.4928077     5.836571 -0.089931958 -0.089931958        47040 
 1777500   0.99164588    4.3382872    1.4874223    5.8257095  -0.14346291  -0.14346291        47040 
 1778000   0.99454904    4.3352393    1.4917769    5.8270162  -0.11998494  -0.11998494        47040 
 1778500   0.99912455    4.3389031      1.49864    5.8375431  -0.15361643  -0.15361643        47040 
 1779000    1.0062039    4.3432548    1.5092586    5.8525135 -0.060909942 -0.060909942        47040 
 1779500    1.0105397    4.3275801    1.5157622    5.8433423  -0.10748068  -0.10748068        47040 
 1780000   0.99886495    4.3332031    1.4982506    5.8314537 -0.090374742 -0.090374742        47040 
 1780500    1.0028729    4.3240633    1.5042624    5.8283257 -0.096867985 -0.096867985        47040 
 1781000    1.0005424     4.338361    1.5007668    5.8391278 -0.074887699 -0.074887699        47040 
 1781500   0.99855412    4.3395576    1.4977844    5.8373419  -0.11382326  -0.11382326        47040 
 1782000   0.99101864    4.3559537    1.4864815    5.8424352 -0.076338803 -0.076338803        47040 
 1782500   0.99922725    4.3307194     1.498794    5.8295134 -0.048669803 -0.048669803        47040 
 1783000    1.0054992    4.3284497    1.5082017    5.8366515 -0.087615883 -0.087615883        47040 
 1783500   0.99611367     4.334644    1.4941238    5.8287678 -0.080030433 -0.080030433        47040 
 1784000     1.003511    4.3256559    1.5052195    5.8308753 -0.091608183 -0.091608183        47040 
 1784500   0.99686521    4.3222447    1.4952511    5.8174958  -0.20076138  -0.20076138        47040 
 1785000   0.99512134     4.327496    1.4926354    5.8201313  -0.10490425  -0.10490425        47040 
 1785500    1.0069216    4.3311174    1.5103352    5.8414526  -0.14889387  -0.14889387        47040 
 1786000    1.0033532    4.3271415    1.5049828    5.8321243 -0.079941694 -0.079941694        47040 
 1786500    1.0040174    4.3278297    1.5059791    5.8338088 -0.093455359 -0.093455359        47040 
 1787000   0.99193223    4.3288768    1.4878518    5.8167286  -0.10043262  -0.10043262        47040 
 1787500   0.99004249    4.3266168    1.4850173    5.8116341 -0.090284242 -0.090284242        47040 
 1788000    1.0082922    4.3313232    1.5123911    5.8437143 -0.052143995 -0.052143995        47040 
 1788500    1.0070956    4.3365003    1.5105961    5.8470964 -0.080157413 -0.080157413        47040 
 1789000    1.0013282    4.3329327    1.5019453     5.834878 -0.098316158 -0.098316158        47040 
 1789500    1.0024066    4.3325603     1.503563    5.8361232  -0.11551705  -0.11551705        47040 
 1790000   0.99237543    4.3276745    1.4885166    5.8161911 -0.078449336 -0.078449336        47040 
 1790500    1.0000917    4.3394067    1.5000907    5.8394974 -0.080393638 -0.080393638        47040 
 1791000   0.99134961    4.3389618    1.4869779    5.8259398  -0.14765809  -0.14765809        47040 
 1791500   0.99796778    4.3285432    1.4969049    5.8254481  -0.18792098  -0.18792098        47040 
 1792000    1.0049412    4.3393792    1.5073647    5.8467439  -0.17143739  -0.17143739        47040 
 1792500   0.99546395    4.3490378    1.4931493    5.8421871 -0.093927173 -0.093927173        47040 
 1793000    1.0065804    4.3304733    1.5098235    5.8402968 -0.046430426 -0.046430426        47040 
 1793500    1.0020127     4.333016     1.502972    5.8359881 -0.055624038 -0.055624038        47040 
 1794000    1.0027695    4.3287678    1.5041072     5.832875 -0.087902581 -0.087902581        47040 
 1794500   0.99442678    4.3288303    1.4915936    5.8204239 -0.091865044 -0.091865044        47040 
 1795000    1.0060536    4.3531593    1.5090333    5.8621926  -0.11435428  -0.11435428        47040 
 1795500   0.99661931    4.3547243    1.4948823    5.8496066  -0.18443008  -0.18443008        47040 
 1796000   0.99556323    4.3437061    1.4932982    5.8370043  -0.13351068  -0.13351068        47040 
 1796500   0.99822871    4.3489447    1.4972963     5.846241  -0.10315651  -0.10315651        47040 
 1797000    1.0018562    4.3434271    1.5027373    5.8461644 -0.084221982 -0.084221982        47040 
 1797500    1.0053522    4.3382994    1.5079812    5.8462806 -0.044359035 -0.044359035        47040 
 1798000    1.0127807    4.3413018    1.5191236    5.8604254 -0.015777292 -0.015777292        47040 
 1798500    1.0005218    4.3419389    1.5007358    5.8426746  -0.11675591  -0.11675591        47040 
 1799000   0.98995913    4.3423664    1.4848923    5.8272587 -0.082035023 -0.082035023        47040 
 1799500   0.99880783    4.3337164    1.4981649    5.8318814  -0.11829586  -0.11829586        47040 
 1800000    1.0010592    4.3360607    1.5015419    5.8376026  -0.13598657  -0.13598657        47040 
 1800500    1.0025378    4.3376114    1.5037597    5.8413711  -0.11287109  -0.11287109        47040 
 1801000    1.0018402     4.345141    1.5027133    5.8478543 -0.074025941 -0.074025941        47040 
 1801500   0.99930654    4.3528031     1.498913    5.8517161 -0.026214238 -0.026214238        47040 
 1802000    1.0016955    4.3474025    1.5024963    5.8498989  -0.09733961  -0.09733961        47040 
 1802500   0.99649733    4.3304219    1.4946993    5.8251212 -0.083459123 -0.083459123        47040 
 1803000    1.0008432    4.3354942    1.5012179    5.8367121  -0.14749037  -0.14749037        47040 
 1803500   0.99735159    4.3284951    1.4959806    5.8244757 -0.087955899 -0.087955899        47040 
 1804000   0.99570973    4.3293115    1.4935179    5.8228294 -0.073630061 -0.073630061        47040 
 1804500    1.0018957    4.3205995    1.5027966    5.8233961  -0.10209295  -0.10209295        47040 
 1805000    1.0017333    4.3299204     1.502553    5.8324734 -0.039579315 -0.039579315        47040 
 1805500    1.0013299    4.3110776     1.501948    5.8130256  -0.12813298  -0.12813298        47040 
 1806000   0.99317661    4.3345749    1.4897184    5.8242933 -0.091148184 -0.091148184        47040 
 1806500   0.99886398    4.3403682    1.4982492    5.8386174 -0.071967154 -0.071967154        47040 
 1807000    1.0085842    4.3432784    1.5128291    5.8561074 -0.098780643 -0.098780643        47040 
 1807500    1.0014806    4.3381761     1.502174    5.8403501 -0.085186209 -0.085186209        47040 
 1808000   0.99024661    4.3441841    1.4853235    5.8295076  -0.15047012  -0.15047012        47040 
 1808500   0.99497324    4.3384231    1.4924132    5.8308363  -0.17014123  -0.17014123        47040 
 1809000    0.9971473    4.3339627    1.4956742    5.8296369 -0.096539402 -0.096539402        47040 
 1809500    0.9974447    4.3279982    1.4961203    5.8241185   -0.1018346   -0.1018346        47040 
 1810000   0.99458779    4.3271011    1.4918351    5.8189361  -0.15606712  -0.15606712        47040 
 1810500    1.0026115    4.3311521    1.5038702    5.8350223 -0.099075551 -0.099075551        47040 
 1811000   0.99597757    4.3396138    1.4939197    5.8335335  -0.11369537  -0.11369537        47040 
 1811500   0.99417957    4.3541055    1.4912228    5.8453283  -0.12172833  -0.12172833        47040 
 1812000    1.0027515    4.3348707    1.5040802    5.8389509  -0.11597734  -0.11597734        47040 
 1812500    1.0013533    4.3443408    1.5019831    5.8463238 -0.064492341 -0.064492341        47040 
 1813000    1.0039444    4.3478623    1.5058696    5.8537319  -0.10501492  -0.10501492        47040 
 1813500   0.99872367    4.3454733    1.4980387     5.843512 -0.067723277 -0.067723277        47040 
 1814000    1.0014028    4.3371874    1.5020573    5.8392447  -0.12082843  -0.12082843        47040 
 1814500    1.0017835    4.3411458    1.5026283    5.8437741 -0.064859511 -0.064859511        47040 
 1815000     1.005858    4.3187305    1.5087398    5.8274703 -0.057355911 -0.057355911        47040 
 1815500   0.99353784    4.3364244    1.4902602    5.8266846  -0.08719294  -0.08719294        47040 
 1816000    0.9960562    4.3222292    1.4940376    5.8162668 -0.090986608 -0.090986608        47040 
 1816500   0.99623896    4.3425959    1.4943117    5.8369076 -0.084390575 -0.084390575        47040 
 1817000   0.99299107    4.3434931    1.4894401    5.8329332 -0.087151421 -0.087151421        47040 
 1817500   0.99643715    4.3381692     1.494609    5.8327782 -0.066058829 -0.066058829        47040 
 1818000   0.99289749     4.355477    1.4892997    5.8447767 -0.041539616 -0.041539616        47040 
 1818500    1.0003654    4.3453914    1.5005012    5.8458926  -0.10022038  -0.10022038        47040 
 1819000    1.0047821    4.3439862    1.5071261    5.8511123  -0.10563367  -0.10563367        47040 
 1819500    1.0091188    4.3380179    1.5136309    5.8516488  -0.10002592  -0.10002592        47040 
 1820000    1.0080876    4.3332063    1.5120841    5.8452904  -0.10197099  -0.10197099        47040 
 1820500   0.99916728     4.332639    1.4987041    5.8313431 -0.041815329 -0.041815329        47040 
 1821000    1.0025245      4.32852    1.5037398    5.8322598 -0.083542504 -0.083542504        47040 
 1821500   0.99824901    4.3329589    1.4973267    5.8302857 -0.042375307 -0.042375307        47040 
 1822000   0.99670681     4.329944    1.4950135    5.8249575  -0.11100527  -0.11100527        47040 
 1822500    1.0056441    4.3360897     1.508419    5.8445088 -0.080771799 -0.080771799        47040 
 1823000   0.99501773    4.3531569    1.4924799    5.8456368 -0.087728809 -0.087728809        47040 
 1823500   0.99449935    4.3386082    1.4917024    5.8303106 -0.081993883 -0.081993883        47040 
 1824000   0.99866512    4.3271079    1.4979509    5.8250588   -0.1052966   -0.1052966        47040 
 1824500     1.001892    4.3246638    1.5027911    5.8274549 -0.086826944 -0.086826944        47040 
 1825000   0.99248924    4.3395076    1.4886873     5.828195 -0.086837533 -0.086837533        47040 
 1825500    0.9958587    4.3262079    1.4937414    5.8199493 -0.099134868 -0.099134868        47040 
 1826000   0.99562991    4.3251174    1.4933982    5.8185156  -0.13674339  -0.13674339        47040 
 1826500   0.99529556    4.3326201    1.4928967    5.8255168  -0.10755331  -0.10755331        47040 
 1827000   0.99732929    4.3333371    1.4959472    5.8292843 -0.046231515 -0.046231515        47040 
 1827500   0.99939541    4.3221515    1.4990463    5.8211978  -0.10259799  -0.10259799        47040 
 1828000   0.99768585    4.3166458     1.496482    5.8131278  -0.13313608  -0.13313608        47040 
 1828500    1.0014474    4.3173195    1.5021241    5.8194436 -0.092907051 -0.092907051        47040 
 1829000    1.0059305    4.3209761    1.5088486    5.8298247  -0.12808173  -0.12808173        47040 
 1829500   0.99650015    4.3342436    1.4947035    5.8289471  -0.12351092  -0.12351092        47040 
 1830000    1.0037216    4.3330924    1.5055354    5.8386278 -0.097878569 -0.097878569        47040 
 1830500    1.0038484    4.3374973    1.5057255    5.8432228 -0.067391785 -0.067391785        47040 
 1831000   0.99904165    4.3381875    1.4985156    5.8367032 -0.053922399 -0.053922399        47040 
 1831500    1.0033749    4.3511507    1.5050153    5.8561659 -0.032126103 -0.032126103        47040 
 1832000   0.99519205    4.3596496    1.4927414    5.8523911 -0.051826692 -0.051826692        47040 
 1832500    1.0058025    4.3496874    1.5086566    5.8583441 -0.099440395 -0.099440395        47040 
 1833000   0.99875749    4.3501304    1.4980894    5.8482198  -0.10166695  -0.10166695        47040 
 1833500   0.99921296    4.3478339    1.4987726    5.8466065  -0.11913241  -0.11913241        47040 
 1834000    1.0000033    4.3491172     1.499958    5.8490752  -0.17534401  -0.17534401        47040 
 1834500   0.99648601    4.3447053    1.4946823    5.8393876  -0.13774562  -0.13774562        47040 
 1835000   0.99496736    4.3340177    1.4924044    5.8264221  -0.12550181  -0.12550181        47040 
 1835500    1.0039116    4.3505683    1.5058204    5.8563887  -0.11344214  -0.11344214        47040 
 1836000    1.0060225    4.3373392    1.5089867    5.8463259 -0.071545195 -0.071545195        47040 
 1836500     1.002088    4.3414841    1.5030851    5.8445692  -0.13374613  -0.13374613        47040 
 1837000    1.0050108    4.3331376    1.5074691    5.8406068 -0.089132822 -0.089132822        47040 
 1837500    1.0106409     4.339043     1.515914     5.854957 -0.095165388 -0.095165388        47040 
 1838000    1.0043526    4.3392591    1.5064818    5.8457409  -0.10391862  -0.10391862        47040 
 1838500     1.001086    4.3399425     1.501582    5.8415245 -0.081541494 -0.081541494        47040 
 1839000    1.0030521    4.3291866    1.5045312    5.8337178  -0.10423614  -0.10423614        47040 
 1839500    1.0002136    4.3313808    1.5002736    5.8316544 -0.072566108 -0.072566108        47040 
 1840000    1.0044722    4.3374192    1.5066612    5.8440804 -0.065046161 -0.065046161        47040 
 1840500   0.99798625    4.3411256    1.4969326    5.8380582 -0.051598236 -0.051598236        47040 
 1841000   0.99833184    4.3294537     1.497451    5.8269047  -0.16812897  -0.16812897        47040 
 1841500    1.0019855    4.3291078    1.5029312     5.832039  -0.10386945  -0.10386945        47040 
 1842000   0.99744242    4.3430054    1.4961169    5.8391223  -0.11906292  -0.11906292        47040 
 1842500    1.0033628    4.3374556    1.5049971    5.8424527 -0.089831393 -0.089831393        47040 
 1843000   0.99726751    4.3330228    1.4958545    5.8288773 -0.085477636 -0.085477636        47040 
 1843500   0.99353465    4.3335607    1.4902554    5.8238161  -0.12717655  -0.12717655        47040 
 1844000   0.98654343    4.3242394    1.4797689    5.8040083  -0.12785985  -0.12785985        47040 
 1844500   0.99657975     4.334607    1.4948229    5.8294299 -0.047475674 -0.047475674        47040 
 1845000   0.99967615    4.3271845    1.4994674    5.8266518  -0.13613807  -0.13613807        47040 
 1845500   0.99623636    4.3328401    1.4943078    5.8271479  -0.11024201  -0.11024201        47040 
 1846000    0.9962669    4.3385567    1.4943536    5.8329103  -0.13014946  -0.13014946        47040 
 1846500     1.004241    4.3341157    1.5063144    5.8404301  -0.12526236  -0.12526236        47040 
 1847000    1.0024922    4.3463617    1.5036913    5.8500531 -0.055368585 -0.055368585        47040 
 1847500    1.0031786    4.3453826    1.5047209    5.8501035  -0.13540061  -0.13540061        47040 
 1848000    1.0053615    4.3441179    1.5079952    5.8521131 -0.032378846 -0.032378846        47040 
 1848500     1.003164    4.3353276     1.504699    5.8400267 -0.049905726 -0.049905726        47040 
 1849000    1.0043534    4.3375904     1.506483    5.8440733  -0.10520726  -0.10520726        47040 
 1849500    1.0039649    4.3345881    1.5059003    5.8404885  -0.11831533  -0.11831533        47040 
 1850000    1.0068835    4.3291783    1.5102781    5.8394564  -0.07643148  -0.07643148        47040 
 1850500   0.99511465    4.3375299    1.4926253    5.8301552 -0.099833609 -0.099833609        47040 
 1851000   0.99482234    4.3317503    1.4921869    5.8239371  -0.10545212  -0.10545212        47040 
 1851500   0.99847039    4.3241617    1.4976588    5.8218204 -0.088939579 -0.088939579        47040 
 1852000   0.99227564    4.3268394     1.488367    5.8152064  -0.10229454  -0.10229454        47040 
 1852500   0.99310147    4.3315255    1.4896057    5.8211311 -0.039631863 -0.039631863        47040 
 1853000   0.98627329    4.3327686    1.4793637    5.8121323  -0.10600248  -0.10600248        47040 
 1853500    0.9968901    4.3334347    1.4952884    5.8287232 -0.080749733 -0.080749733        47040 
 1854000   0.99939286    4.3436513    1.4990424    5.8426938 -0.092441996 -0.092441996        47040 
 1854500    1.0044453    4.3427932    1.5066209    5.8494141 -0.058234279 -0.058234279        47040 
 1855000   0.99818941    4.3422021    1.4972373    5.8394394  -0.14974531  -0.14974531        47040 
 1855500    1.0014546    4.3459539     1.502135    5.8480889 -0.080208804 -0.080208804        47040 
 1856000      1.00585    4.3450284    1.5087279    5.8537563 -0.067406493 -0.067406493        47040 
 1856500    1.0064609    4.3436301    1.5096442    5.8532743 -0.078427147 -0.078427147        47040 
 1857000   0.99929514    4.3454364    1.4988959    5.8443323 -0.078173772 -0.078173772        47040 
 1857500   0.99277851    4.3388004    1.4891212    5.8279217  -0.10272435  -0.10272435        47040 
 1858000   0.99405027    4.3301689    1.4910288    5.8211978  -0.11123902  -0.11123902        47040 
 1858500   0.99466413    4.3365158    1.4919496    5.8284653  -0.12624582  -0.12624582        47040 
 1859000    1.0019344     4.338338    1.5028547    5.8411927  -0.06497825  -0.06497825        47040 
 1859500    1.0041206     4.333387    1.5061338    5.8395208 -0.099256359 -0.099256359        47040 
 1860000    1.0064033    4.3327824    1.5095577    5.8423402 -0.075778961 -0.075778961        47040 
 1860500     1.008058    4.3422709    1.5120397    5.8543105 -0.052966677 -0.052966677        47040 
 1861000    1.0014634    4.3366282    1.5021482    5.8387763  -0.08300806  -0.08300806        47040 
 1861500   0.99687778    4.3587493    1.4952699    5.8540192 -0.072546138 -0.072546138        47040 
 1862000    1.0022229    4.3544643    1.5032874    5.8577517  -0.14859956  -0.14859956        47040 
 1862500    1.0056993    4.3517296    1.5085018    5.8602313  -0.15600189  -0.15600189        47040 
 1863000    1.0060194    4.3458139     1.508982    5.8547959  -0.14685566  -0.14685566        47040 
 1863500   0.99927558    4.3553665    1.4988665     5.854233  -0.10677213  -0.10677213        47040 
 1864000   0.99523209    4.3509143    1.4928015    5.8437157 -0.069505987 -0.069505987        47040 
 1864500   0.99288069    4.3526041    1.4892745    5.8418786  -0.11273516  -0.11273516        47040 
 1865000    0.9955574    4.3492926    1.4932894    5.8425821   -0.1760666   -0.1760666        47040 
 1865500   0.99517237    4.3562082    1.4927119    5.8489202 -0.082396447 -0.082396447        47040 
 1866000    1.0030183    4.3494416    1.5044804     5.853922  -0.06399015  -0.06399015        47040 
 1866500   0.99068824    4.3380097    1.4859859    5.8239956   -0.1376241   -0.1376241        47040 
 1867000    1.0034909    4.3266324    1.5051893    5.8318216 -0.050898167 -0.050898167        47040 
 1867500     1.006899    4.3335526    1.5103014    5.8438539  -0.12928065  -0.12928065        47040 
 1868000   0.99997949    4.3461406    1.4999224    5.8460629  -0.17289341  -0.17289341        47040 
 1868500   0.99689334    4.3486234    1.4952933    5.8439167  -0.16336296  -0.16336296        47040 
 1869000   0.99651333    4.3568321    1.4947233    5.8515554  -0.11501068  -0.11501068        47040 
 1869500   0.99613061    4.3404067    1.4941492    5.8345559  -0.14961225  -0.14961225        47040 
 1870000    1.0083103    4.3515462    1.5124182    5.8639644  -0.10389643  -0.10389643        47040 
 1870500    1.0054038    4.3330898    1.5080586    5.8411484 -0.056945945 -0.056945945        47040 
 1871000   0.99906077    4.3402847    1.4985443     5.838829  -0.13674307  -0.13674307        47040 
 1871500   0.99909166    4.3412077    1.4985907    5.8397984 -0.085538264 -0.085538264        47040 
 1872000    1.0009507    4.3354173    1.5013792    5.8367965 -0.072387224 -0.072387224        47040 
 1872500    1.0050773    4.3497858    1.5075689    5.8573546 -0.091241994 -0.091241994        47040 
 1873000    1.0084214    4.3365882    1.5125848     5.849173  -0.10938258  -0.10938258        47040 
 1873500    1.0011483     4.346235    1.5016755    5.8479104  -0.16314751  -0.16314751        47040 
 1874000    1.0002088     4.353765    1.5002663    5.8540313 -0.087738692 -0.087738692        47040 
 1874500   0.99671217    4.3425537    1.4950215    5.8375753 -0.083807712 -0.083807712        47040 
 1875000    1.0060074    4.3633513    1.5089639    5.8723152 -0.092974532 -0.092974532        47040 
 1875500   0.99727652     4.342403     1.495868     5.838271  -0.14587598  -0.14587598        47040 
 1876000   0.99488115    4.3417678    1.4922751    5.8340429 -0.095756276 -0.095756276        47040 
 1876500    1.0024986    4.3410607    1.5037009    5.8447616  -0.10857027  -0.10857027        47040 
 1877000    1.0017354    4.3477802    1.5025562    5.8503364  -0.14819091  -0.14819091        47040 
 1877500    1.0052464    4.3340518    1.5078225    5.8418743  -0.10114222  -0.10114222        47040 
 1878000   0.99691536     4.346532    1.4953263    5.8418583 -0.076336433 -0.076336433        47040 
 1878500    1.0017045    4.3338858    1.5025097    5.8363955  -0.12836949  -0.12836949        47040 
 1879000    1.0046853     4.351944    1.5069808    5.8589248 -0.034184339 -0.034184339        47040 
 1879500    1.0004471    4.3662282    1.5006237    5.8668519  -0.11613013  -0.11613013        47040 
 1880000   0.99965677    4.3623083    1.4994383    5.8617466  -0.11309604  -0.11309604        47040 
 1880500   0.99851244    4.3718693    1.4977219    5.8695912  -0.13097078  -0.13097078        47040 
 1881000    1.0018104    4.3628233    1.5026687     5.865492  -0.14652955  -0.14652955        47040 
 1881500   0.99753596    4.3451426    1.4962572    5.8413998  -0.11053933  -0.11053933        47040 
 1882000    1.0036954    4.3273563     1.505496    5.8328523 -0.058509082 -0.058509082        47040 
 1882500    1.0033646    4.3243485    1.5049998    5.8293483 -0.083261213 -0.083261213        47040 
 1883000   0.99304114    4.3367013    1.4895152    5.8262164  -0.12086331  -0.12086331        47040 
 1883500   0.99435015    4.3483559    1.4914786    5.8398346 -0.098256199 -0.098256199        47040 
 1884000    1.0017324    4.3456389    1.5025517    5.8481906  -0.11535541  -0.11535541        47040 
 1884500    1.0015103    4.3532835    1.5022185     5.855502  -0.10092783  -0.10092783        47040 
 1885000    1.0054442     4.369496    1.5081192    5.8776152 -0.083429333 -0.083429333        47040 
 1885500   0.99384012    4.3544871    1.4907136    5.8452007  -0.16353621  -0.16353621        47040 
 1886000    1.0004538     4.340063    1.5006338    5.8406968  -0.16999653  -0.16999653        47040 
 1886500    0.9947726    4.3506611    1.4921123    5.8427734 -0.075397341 -0.075397341        47040 
 1887000    1.0004608    4.3464771    1.5006444    5.8471214 -0.070964887 -0.070964887        47040 
 1887500   0.99370441    4.3321969      1.49051    5.8227069  -0.13075832  -0.13075832        47040 
 1888000   0.99909008     4.327821    1.4985883    5.8264093  -0.10307104  -0.10307104        47040 
 1888500   0.99725435    4.3358118    1.4958348    5.8316466  -0.13432485  -0.13432485        47040 
 1889000   0.99817673    4.3365306    1.4972183    5.8337489  -0.14763441  -0.14763441        47040 
 1889500    1.0000965    4.3389033    1.5000979    5.8390012  -0.10523073  -0.10523073        47040 
 1890000    1.0025067    4.3338496    1.5037131    5.8375627  -0.10390654  -0.10390654        47040 
 1890500    1.0029235    4.3331633    1.5043382    5.8375015 -0.069186671 -0.069186671        47040 
 1891000    1.0037101    4.3423476     1.505518    5.8478657 -0.073053287 -0.073053287        47040 
 1891500    1.0038677    4.3545086    1.5057545    5.8602632  -0.11994515  -0.11994515        47040 
 1892000     1.006673    4.3541002    1.5099624    5.8640626   -0.0972485   -0.0972485        47040 
 1892500   0.99567741    4.3415786    1.4934694    5.8350481   -0.1874383   -0.1874383        47040 
 1893000   0.99586473    4.3489779    1.4937504    5.8427283 -0.019618219 -0.019618219        47040 
 1893500   0.99901642    4.3470829    1.4984778    5.8455607   -0.1075825   -0.1075825        47040 
 1894000    1.0090898    4.3434627    1.5135873    5.8570501 -0.067082881 -0.067082881        47040 
 1894500    1.0052155    4.3446861    1.5077762    5.8524622 -0.060596818 -0.060596818        47040 
 1895000    1.0013045    4.3445881    1.5019099    5.8464979  -0.10653769  -0.10653769        47040 
 1895500    1.0011408     4.344016    1.5016642    5.8456802  -0.11869172  -0.11869172        47040 
 1896000   0.99707407     4.348187    1.4955644    5.8437513 -0.00045045369 -0.00045045369        47040 
 1896500   0.99673812    4.3503919    1.4950605    5.8454523  -0.10141572  -0.10141572        47040 
 1897000    1.0069915    4.3487618      1.51044    5.8592019 -0.075800807 -0.075800807        47040 
 1897500    1.0068884    4.3513605    1.5102854    5.8616459  -0.12153664  -0.12153664        47040 
 1898000    1.0055331    4.3519109    1.5082525    5.8601635  -0.13816241  -0.13816241        47040 
 1898500    1.0037515    4.3429308    1.5055802     5.848511 -0.074130755 -0.074130755        47040 
 1899000    1.0005062    4.3280293    1.5007124    5.8287417  -0.10156556  -0.10156556        47040 
 1899500   0.99626942    4.3236659    1.4943574    5.8180233  -0.09681234  -0.09681234        47040 
 1900000   0.99390456    4.3264992    1.4908103    5.8173095 -0.046984428 -0.046984428        47040 
 1900500   0.99994385    4.3361403    1.4998689    5.8360092 -0.087523518 -0.087523518        47040 
 1901000    1.0011296    4.3424485    1.5016475     5.844096 -0.092500366 -0.092500366        47040 
 1901500   0.99761198    4.3521406    1.4963712    5.8485118  -0.09984567  -0.09984567        47040 
 1902000   0.99861761    4.3587682    1.4978796    5.8566478  -0.10182041  -0.10182041        47040 
 1902500   0.99710646    4.3509188    1.4956129    5.8465317 -0.076900025 -0.076900025        47040 
 1903000     1.002626    4.3446887     1.503892    5.8485807 -0.023293788 -0.023293788        47040 
 1903500    1.0005719      4.34093     1.500811     5.841741 -0.059072421 -0.059072421        47040 
 1904000    1.0042586    4.3408789    1.5063408    5.8472196 -0.075513823 -0.075513823        47040 
 1904500    0.9995392    4.3413748    1.4992619    5.8406367  -0.11728181  -0.11728181        47040 
 1905000   0.99925285    4.3475284    1.4988324    5.8463609 -0.091831596 -0.091831596        47040 
 1905500   0.99780391    4.3427681    1.4966591    5.8394272  -0.12382618  -0.12382618        47040 
 1906000    1.0054587    4.3478712    1.5081409    5.8560121  -0.15041143  -0.15041143        47040 
 1906500    1.0051615    4.3514997    1.5076951    5.8591948  -0.10841617  -0.10841617        47040 
 1907000    1.0008088    4.3456688    1.5011663    5.8468351  -0.10169456  -0.10169456        47040 
 1907500    1.0045792    4.3425629    1.5068217    5.8493846   -0.1122237   -0.1122237        47040 
 1908000   0.99249221    4.3442591    1.4886918    5.8329509 -0.048857061 -0.048857061        47040 
 1908500   0.99855547    4.3418231    1.4977864    5.8396095 -0.048673135 -0.048673135        47040 
 1909000    1.0037015    4.3289594    1.5055053    5.8344647 -0.094636629 -0.094636629        47040 
 1909500   0.99792064     4.348717    1.4968342    5.8455512 -0.085964915 -0.085964915        47040 
 1910000   0.99960447    4.3436853    1.4993598    5.8430452 -0.087435296 -0.087435296        47040 
 1910500     1.008828    4.3298759    1.5131947    5.8430706 -0.022551188 -0.022551188        47040 
 1911000   0.99655805    4.3328089    1.4947904    5.8275993  -0.11068424  -0.11068424        47040 
 1911500   0.99833411    4.3317139    1.4974544    5.8291682 -0.084300657 -0.084300657        47040 
 1912000     0.995617    4.3512988    1.4933788    5.8446777 -0.094829528 -0.094829528        47040 
 1912500    1.0043128    4.3522604    1.5064221    5.8586825 -0.089155014 -0.089155014        47040 
 1913000    1.0011526    4.3651503     1.501682    5.8668323  -0.16315993  -0.16315993        47040 
 1913500    1.0046224    4.3558739    1.5068866    5.8627605  -0.14261069  -0.14261069        47040 
 1914000    1.0051788    4.3625987     1.507721    5.8703198  -0.13710385  -0.13710385        47040 
 1914500    1.0018439    4.3596899    1.5027189    5.8624088  -0.11137503  -0.11137503        47040 
 1915000    1.0028826     4.356844    1.5042769    5.8611209 -0.092566326 -0.092566326        47040 
 1915500    1.0015972    4.3470883    1.5023488    5.8494371  -0.13020682  -0.13020682        47040 
 1916000    1.0069329     4.336959    1.5103521    5.8473111  -0.13611549  -0.13611549        47040 
 1916500    1.0046576    4.3495048    1.5069393    5.8564441  -0.12570045  -0.12570045        47040 
 1917000     1.000682    4.3423084    1.5009761    5.8432845  -0.11104326  -0.11104326        47040 
 1917500    1.0028764    4.3495425    1.5042676    5.8538101  -0.11411572  -0.11411572        47040 
 1918000    1.0013262    4.3479075    1.5019424    5.8498499 -0.087429623 -0.087429623        47040 
 1918500    1.0001563    4.3480238    1.5001875    5.8482113  -0.12074903  -0.12074903        47040 
 1919000   0.99581045    4.3490413     1.493669    5.8427103  -0.17396123  -0.17396123        47040 
 1919500   0.98970513    4.3531766    1.4845113    5.8376879  -0.15899522  -0.15899522        47040 
 1920000   0.99560504    4.3539447    1.4933609    5.8473056  -0.12264158  -0.12264158        47040 
 1920500    1.0073751    4.3300632    1.5110154    5.8410786  -0.15186696  -0.15186696        47040 
 1921000    1.0059423     4.341599    1.5088663    5.8504653 -0.049786386 -0.049786386        47040 
 1921500    1.0035277    4.3419549    1.5052444    5.8471993   -0.1557627   -0.1557627        47040 
 1922000     1.004721     4.334845    1.5070344    5.8418794 -0.075543677 -0.075543677        47040 
 1922500   0.99507774     4.336542      1.49257    5.8291119  -0.14918303  -0.14918303        47040 
 1923000    0.9931233    4.3467644    1.4896384    5.8364028  -0.19392482  -0.19392482        47040 
 1923500    1.0038848    4.3383141    1.5057801    5.8440942   -0.1116255   -0.1116255        47040 
 1924000    1.0038562    4.3338794    1.5057372    5.8396166   -0.1711185   -0.1711185        47040 
 1924500   0.99873448    4.3389264    1.4980549    5.8369813  -0.12194638  -0.12194638        47040 
 1925000   0.99792717    4.3207273     1.496844    5.8175713 -0.060938692 -0.060938692        47040 
 1925500   0.99540258    4.3330426    1.4930572    5.8260998 -0.039974353 -0.039974353        47040 
 1926000   0.99472126    4.3344041    1.4920353    5.8264394   -0.1293302   -0.1293302        47040 
 1926500     1.003822    4.3227697     1.505686    5.8284557 -0.080405188 -0.080405188        47040 
 1927000   0.99995575    4.3313511    1.4998868    5.8312379 -0.071512039 -0.071512039        47040 
 1927500    1.0004967    4.3511806    1.5006981    5.8518788 -0.080901484 -0.080901484        47040 
 1928000    1.0004547    4.3549054    1.5006351    5.8555405  -0.11890579  -0.11890579        47040 
 1928500    1.0041282    4.3554836    1.5061452    5.8616288  -0.18033355  -0.18033355        47040 
 1929000    1.0023877    4.3586144    1.5035346     5.862149  -0.08452814  -0.08452814        47040 
 1929500   0.99773339    4.3550833    1.4965533    5.8516366 -0.097143383 -0.097143383        47040 
 1930000   0.99992382    4.3391449    1.4998389    5.8389837 -0.088172113 -0.088172113        47040 
 1930500   0.99698874    4.3299956    1.4954364    5.8254319 -0.065325627 -0.065325627        47040 
 1931000    1.0004541    4.3295801    1.5006343    5.8302144 -0.092802383 -0.092802383        47040 
 1931500    0.9975298    4.3211082    1.4962479    5.8173562 -0.026684821 -0.026684821        47040 
 1932000   0.99871966    4.3301617    1.4980327    5.8281944 -0.023602721 -0.023602721        47040 
 1932500   0.99760158     4.329605    1.4963556    5.8259607 -0.063563912 -0.063563912        47040 
 1933000    1.0033429    4.3325797    1.5049673    5.8375471  -0.12469817  -0.12469817        47040 
 1933500   0.99908826    4.3402818    1.4985856    5.8388673 -0.092251281 -0.092251281        47040 
 1934000    0.9963441    4.3416591    1.4944694    5.8361286  -0.16411776  -0.16411776        47040 
 1934500   0.99924467    4.3420989    1.4988202    5.8409191 -0.096880826 -0.096880826        47040 
 1935000    1.0009828    4.3538649    1.5014273    5.8552922 -0.093430261 -0.093430261        47040 
 1935500    1.0037693    4.3493369    1.5056068    5.8549438  -0.12918038  -0.12918038        47040 
 1936000   0.99694022     4.348556    1.4953636    5.8439196  -0.15006999  -0.15006999        47040 
 1936500   0.99723521    4.3576285    1.4958061    5.8534345   -0.1524572   -0.1524572        47040 
 1937000   0.99891736    4.3520368    1.4983292     5.850366  -0.15548802  -0.15548802        47040 
 1937500   0.99600152    4.3497102    1.4939556    5.8436658 -0.082503271 -0.082503271        47040 
 1938000   0.99582313    4.3370048     1.493688    5.8306928  -0.10792499  -0.10792499        47040 
 1938500   0.99820067    4.3163977    1.4972542    5.8136519  -0.11099337  -0.11099337        47040 
 1939000    1.0022204    4.3211687    1.5032837    5.8244524 -0.014829469 -0.014829469        47040 
 1939500   0.99937801    4.3317461    1.4990202    5.8307663  -0.07382897  -0.07382897        47040 
 1940000    1.0008954    4.3450416    1.5012963    5.8463379  -0.10388808  -0.10388808        47040 
 1940500    1.0018255    4.3485439    1.5026913    5.8512352 -0.090883698 -0.090883698        47040 
 1941000   0.99792846    4.3620767    1.4968459    5.8589226    -0.107376    -0.107376        47040 
 1941500    1.0068933     4.361848    1.5102927    5.8721407  -0.16606676  -0.16606676        47040 
 1942000   0.99488801    4.3551341    1.4922854    5.8474195  -0.10149758  -0.10149758        47040 
 1942500    1.0004179    4.3413151      1.50058    5.8418951 -0.057960088 -0.057960088        47040 
 1943000    1.0028113    4.3278744      1.50417    5.8320443  -0.12253654  -0.12253654        47040 
 1943500    1.0020717    4.3266122    1.5030605    5.8296727 -0.088618101 -0.088618101        47040 
 1944000   0.99767744    4.3388763    1.4964694    5.8353457  -0.11017219  -0.11017219        47040 
 1944500   0.99512235    4.3349874    1.4926369    5.8276243 -0.072963754 -0.072963754        47040 
 1945000   0.99369069    4.3436492    1.4904895    5.8341387  -0.17092833  -0.17092833        47040 
 1945500   0.99996178    4.3487022    1.4998958     5.848598  -0.12020998  -0.12020998        47040 
 1946000     1.002049    4.3612279    1.5030265    5.8642544  -0.14618882  -0.14618882        47040 
 1946500   0.99902297    4.3586714    1.4984876     5.857159 -0.061645227 -0.061645227        47040 
 1947000    1.0005256    4.3545199    1.5007415    5.8552614 -0.021197601 -0.021197601        47040 
 1947500   0.99441052    4.3409998    1.4915692    5.8325689   -0.1285121   -0.1285121        47040 
 1948000   0.99283132    4.3435845    1.4892004     5.832785 -0.058072467 -0.058072467        47040 
 1948500    1.0027679    4.3402244    1.5041048    5.8443292  -0.04593181  -0.04593181        47040 
 1949000    1.0053973    4.3369007    1.5080488    5.8449495 -0.068710702 -0.068710702        47040 
 1949500     1.000231    4.3428266    1.5002996    5.8431262 -0.058690836 -0.058690836        47040 
 1950000   0.99586082    4.3459282    1.4937446    5.8396727  -0.12111564  -0.12111564        47040 
 1950500   0.99302698    4.3377022    1.4894939    5.8271961  -0.10632344  -0.10632344        47040 
 1951000   0.99514192    4.3377892    1.4926662    5.8304555  -0.13056209  -0.13056209        47040 
 1951500   0.99726858     4.343075    1.4958561    5.8389311  -0.10538065  -0.10538065        47040 
 1952000     1.003736     4.339333    1.5055569    5.8448899 -0.088252111 -0.088252111        47040 
 1952500    1.0032489    4.3405827    1.5048264    5.8454091 -0.098314023 -0.098314023        47040 
 1953000    1.0027398    4.3529681    1.5040627    5.8570308  -0.12951544  -0.12951544        47040 
 1953500   0.99643033    4.3485369    1.4945988    5.8431357 -0.065830042 -0.065830042        47040 
 1954000    1.0029588    4.3391147    1.5043912    5.8435059  -0.08562908  -0.08562908        47040 
 1954500    1.0029941    4.3394309    1.5044442    5.8438751  -0.12257866  -0.12257866        47040 
 1955000   0.99485169    4.3470728    1.4922309    5.8393037  -0.14534902  -0.14534902        47040 
 1955500   0.99886513    4.3489374    1.4982509    5.8471883  -0.13587517  -0.13587517        47040 
 1956000    1.0036245    4.3540243    1.5053897     5.859414 -0.082021293 -0.082021293        47040 
 1956500    1.0034932    4.3464789    1.5051928    5.8516717  -0.12700884  -0.12700884        47040 
 1957000   0.99959214    4.3540567    1.4993414     5.853398 -0.065279585 -0.065279585        47040 
 1957500    1.0091966    4.3459848    1.5137476    5.8597324 -0.037356193 -0.037356193        47040 
 1958000    1.0142893    4.3399177    1.5213864    5.8613042 -0.065425767 -0.065425767        47040 
 1958500    1.0062658    4.3422412    1.5093516    5.8515927  -0.12864254  -0.12864254        47040 
 1959000   0.99583413    4.3516837    1.4937045    5.8453883 -0.099462996 -0.099462996        47040 
 1959500   0.99890375    4.3575509    1.4983088    5.8558597   -0.1091116   -0.1091116        47040 
 1960000    1.0025041    4.3495388    1.5037091    5.8532479   -0.1519687   -0.1519687        47040 
 1960500    1.0028927      4.34343    1.5042921    5.8477221  -0.13395095  -0.13395095        47040 
 1961000    1.0080971     4.342274    1.5120983    5.8543724  -0.08154507  -0.08154507        47040 
 1961500    1.0007318    4.3415855    1.5010508    5.8426363  -0.12575419  -0.12575419        47040 
 1962000    0.9911147    4.3336383    1.4866256    5.8202639  -0.12686196  -0.12686196        47040 
 1962500    0.9954638    4.3316701     1.493149    5.8248191   -0.1309453   -0.1309453        47040 
 1963000   0.99768563    4.3285139    1.4964817    5.8249955  -0.15346683  -0.15346683        47040 
 1963500    1.0010779    4.3291204    1.5015699    5.8306904  -0.13161887  -0.13161887        47040 
 1964000    1.0027195    4.3332183    1.5040322    5.8372505 -0.026947275 -0.026947275        47040 
 1964500    1.0009649    4.3375566    1.5014005    5.8389571  -0.06448825  -0.06448825        47040 
 1965000   0.99839065    4.3444901    1.4975392    5.8420293 -0.099692987 -0.099692987        47040 
 1965500   0.99862046    4.3448914    1.4978839    5.8427752   -0.1150179   -0.1150179        47040 
 1966000   0.99877757    4.3500688    1.4981195    5.8481883  -0.12288846  -0.12288846        47040 
 1966500    1.0031805     4.351027    1.5047237    5.8557507 -0.069457592 -0.069457592        47040 
 1967000    0.9994447    4.3483257    1.4991202    5.8474459 -0.098862779 -0.098862779        47040 
 1967500   0.99746367    4.3487243    1.4961487    5.8448731  -0.12959313  -0.12959313        47040 
 1968000    1.0006025    4.3385781    1.5008569     5.839435 -0.094701957 -0.094701957        47040 
 1968500    1.0013938    4.3322495    1.5020437    5.8342932  -0.20065996  -0.20065996        47040 
 1969000   0.99933234    4.3434587    1.4989517    5.8424104 -0.069053097 -0.069053097        47040 
 1969500   0.99730355    4.3366461    1.4959086    5.8325547 -0.084329734 -0.084329734        47040 
 1970000    1.0023819    4.3315297    1.5035259    5.8350556   -0.1138036   -0.1138036        47040 
 1970500    1.0058745    4.3509475    1.5087646    5.8597121 -0.072338114 -0.072338114        47040 
 1971000    1.0054185    4.3466916    1.5080806    5.8547722 -0.085702795 -0.085702795        47040 
 1971500    1.0009283    4.3403126    1.5013455    5.8416581  -0.13324747  -0.13324747        47040 
 1972000    0.9948524     4.347051     1.492232     5.839283   -0.1369932   -0.1369932        47040 
 1972500   0.99583078    4.3458001    1.4936995    5.8394996  -0.18021101  -0.18021101        47040 
 1973000    1.0007041    4.3272018    1.5010093    5.8282111  -0.10150937  -0.10150937        47040 
 1973500   0.99654705    4.3381827    1.4947739    5.8329566  -0.10140676  -0.10140676        47040 
 1974000   0.99442913    4.3393574    1.4915971    5.8309545 -0.037605921 -0.037605921        47040 
 1974500   0.99760306    4.3155143    1.4963578    5.8118721 -0.039911703 -0.039911703        47040 
 1975000   0.98696973    4.3332226    1.4804083    5.8136309 -0.034887064 -0.034887064        47040 
 1975500   0.99536949    4.3410463    1.4930076    5.8340539 -0.072213438 -0.072213438        47040 
 1976000    0.9999599    4.3276885     1.499893    5.8275815  -0.11923779  -0.11923779        47040 
 1976500   0.99486183    4.3326428    1.4922461    5.8248889  -0.10147716  -0.10147716        47040 
 1977000   0.99698407    4.3287761    1.4954294    5.8242055   -0.1154525   -0.1154525        47040 
 1977500    1.0016925    4.3259284    1.5024919    5.8284203  -0.10073979  -0.10073979        47040 
 1978000   0.99532987    4.3261643    1.4929482    5.8191125  -0.11878288  -0.11878288        47040 
 1978500   0.99609934    4.3292016    1.4941023    5.8233039   -0.1099207   -0.1099207        47040 
 1979000   0.99638348    4.3401822    1.4945285    5.8347108  -0.10188036  -0.10188036        47040 
 1979500   0.99534322    4.3491877    1.4929682    5.8421558  -0.10566506  -0.10566506        47040 
 1980000   0.99958039    4.3480325    1.4993237    5.8473562 -0.069802687 -0.069802687        47040 
 1980500   0.99940554     4.350139    1.4990615    5.8492005  -0.09072018  -0.09072018        47040 
 1981000   0.99912282    4.3516681    1.4986374    5.8503055 -0.069209558 -0.069209558        47040 
 1981500    1.0079965    4.3437936    1.5119475    5.8557412  -0.12114583  -0.12114583        47040 
 1982000    1.0020167    4.3536994    1.5029781    5.8566774 -0.021464278 -0.021464278        47040 
 1982500    1.0055411    4.3482753    1.5082645    5.8565398 -0.097807557 -0.097807557        47040 
 1983000   0.99787653    4.3414796     1.496768    5.8382476 -0.014698382 -0.014698382        47040 
 1983500    1.0008542    4.3293449    1.5012344    5.8305793  -0.10204995  -0.10204995        47040 
 1984000   0.99825153     4.338579    1.4973305    5.8359095 -0.086408614 -0.086408614        47040 
 1984500   0.99137577    4.3476745    1.4870172    5.8346916 -0.063610253 -0.063610253        47040 
 1985000   0.99742126    4.3271697    1.4960851    5.8232548  -0.13912124  -0.13912124        47040 
 1985500    1.0079162    4.3525761    1.5118271    5.8644032 -0.099207441 -0.099207441        47040 
 1986000    1.0005429     4.337436    1.5007674    5.8382034  -0.15710712  -0.15710712        47040 
 1986500    1.0001914    4.3425404    1.5002402    5.8427806  -0.10013951  -0.10013951        47040 
 1987000     1.001751    4.3608007    1.5025796    5.8633803 -0.046852333 -0.046852333        47040 
 1987500    1.0016175    4.3525124    1.5023793    5.8548917 -0.091591885 -0.091591885        47040 
 1988000   0.99447575    4.3483856     1.491667    5.8400526 -0.066789011 -0.066789011        47040 
 1988500    1.0013632    4.3366443    1.5019979    5.8386422   -0.0663817   -0.0663817        47040 
 1989000   0.99615356    4.3445897    1.4941836    5.8387733  -0.04171714  -0.04171714        47040 
 1989500    1.0019292    4.3246846    1.5028468    5.8275314 -0.078311608 -0.078311608        47040 
 1990000    1.0046387    4.3218852    1.5069109    5.8287961  -0.12004791  -0.12004791        47040 
 1990500    1.0063775    4.3330274     1.509519    5.8425464  -0.11278675  -0.11278675        47040 
 1991000    1.0001477    4.3258489    1.5001746    5.8260235 -0.066922771 -0.066922771        47040 
 1991500   0.99318123     4.325996    1.4897253    5.8157213 -0.080922865 -0.080922865        47040 
 1992000    1.0007641    4.3352051    1.5010992    5.8363043  -0.11306691  -0.11306691        47040 
 1992500   0.99729187    4.3374294    1.4958911    5.8333204  -0.13879354  -0.13879354        47040 
 1993000    1.0006684    4.3280553    1.5009558     5.829011  -0.13585572  -0.13585572        47040 
 1993500     1.002693    4.3352063    1.5039925    5.8391987 -0.054201954 -0.054201954        47040 
 1994000    1.0048655     4.324493    1.5072511    5.8317441 -0.062828732 -0.062828732        47040 
 1994500    1.0038778    4.3324811    1.5057696    5.8382507 -0.047276907 -0.047276907        47040 
 1995000    1.0037501    4.3265381    1.5055781    5.8321162 -0.082055591 -0.082055591        47040 
 1995500   0.99867923    4.3358979     1.497972    5.8338699  -0.07568975  -0.07568975        47040 
 1996000   0.98688666    4.3319824    1.4802837    5.8122662  -0.11370025  -0.11370025        47040 
 1996500   0.99461508    4.3400138     1.491876    5.8318899  -0.13196113  -0.13196113        47040 
 1997000   0.99394895    4.3454769    1.4908768    5.8363537  -0.09741806  -0.09741806        47040 
 1997500    1.0007598    4.3392976    1.5010927    5.8403904 -0.072418228 -0.072418228        47040 
 1998000   0.99825384    4.3362932     1.497334    5.8336272 -0.029309385 -0.029309385        47040 
 1998500   0.99547139    4.3383669    1.4931604    5.8315273 -0.099113283 -0.099113283        47040 
 1999000   0.99526725    4.3469636    1.4928542    5.8398179  -0.15976742  -0.15976742        47040 
 1999500   0.99936443    4.3412306    1.4989998    5.8402304  -0.14211402  -0.14211402        47040 
 2000000    1.0099407    4.3516288    1.5148637    5.8664925 -0.098840658 -0.098840658        47040 
Loop time of 35432 on 8 procs for 2000000 steps with 32000 atoms

Performance: 14630.852 tau/day, 56.446 timesteps/s
99.8% CPU use with 1 MPI tasks x 8 OpenMP threads

MPI task timing breakdown:
Section |  min time  |  avg time  |  max time  |%varavg| %total
---------------------------------------------------------------
Pair    | 25378      | 25378      | 25378      |   0.0 | 71.62
Bond    | 916.74     | 916.74     | 916.74     |   0.0 |  2.59
Neigh   | 7620.1     | 7620.1     | 7620.1     |   0.0 | 21.51
Comm    | 314.2      | 314.2      | 314.2      |   0.0 |  0.89
Output  | 14.634     | 14.634     | 14.634     |   0.0 |  0.04
Modify  | 905.42     | 905.42     | 905.42     |   0.0 |  2.56
Other   |            | 283.1      |            |       |  0.80

Nlocal:    32000 ave 32000 max 32000 min
Histogram: 1 0 0 0 0 0 0 0 0 0
Nghost:    17583 ave 17583 max 17583 min
Histogram: 1 0 0 0 0 0 0 0 0 0
Neighs:    1.11899e+06 ave 1.11899e+06 max 1.11899e+06 min
Histogram: 1 0 0 0 0 0 0 0 0 0

Total # of neighbors = 1118989
Ave neighs/atom = 34.9684
Ave special neighs/atom = 1.75
Neighbor list builds = 185826
Dangerous builds = 0

write_restart restart.surften_vlv
Total wall time: 9:50:32
